%nprocshared=40
%mem=364GB
%chk=DEC.chk
#p b3lyp/6-31g(d,p) scrf=(solvent=water) geom=connectivity pop=orbitals=10 scf=maxcycles=256 guess=read output=(matrix,i4lab)

ester after MD DNA-Ester-CNT

-22 1
 H(PDBName=HO5P,ResName=DG5,ResNum=1)                0   53.65100000   47.23900000   36.22400000 L
 O(PDBName=O5P,ResName=DG5,ResNum=1)                 0   53.88800000   47.66900000   37.06400000 L
 C(PDBName=C5P,ResName=DG5,ResNum=1)                 0   55.30100000   47.75600000   37.21800000 L
 H(PDBName=H5P,ResName=DG5,ResNum=1)                 0   55.63300000   48.75300000   36.92200000 L
 H(PDBName=H5PP,ResName=DG5,ResNum=1)                0   55.77800000   47.03200000   36.55600000 L
 C(PDBName=C4P,ResName=DG5,ResNum=1)                 0   55.78600000   47.48200000   38.66100000 L
 H(PDBName=H4P,ResName=DG5,ResNum=1)                 0   56.87600000   47.52200000   38.66800000 L
 O(PDBName=O4P,ResName=DG5,ResNum=1)                 0   55.27300000   48.44900000   39.57500000 L
 C(PDBName=C1P,ResName=DG5,ResNum=1)                 0   54.35300000   47.81900000   40.46300000 L
 H(PDBName=H1P,ResName=DG5,ResNum=1)                 0   54.80000000   47.71400000   41.45600000 L
 N(PDBName=N9,ResName=DG5,ResNum=1)                  0   53.09100000   48.58100000   40.55500000 L
 C(PDBName=C8,ResName=DG5,ResNum=1)                  0   52.42500000   49.25300000   39.56400000 L
 H(PDBName=H8,ResName=DG5,ResNum=1)                  0   52.84100000   49.35300000   38.56800000 L
 N(PDBName=N7,ResName=DG5,ResNum=1)                  0   51.26700000   49.74600000   39.92700000 L
 C(PDBName=C5,ResName=DG5,ResNum=1)                  0   51.15700000   49.35300000   41.27400000 L
 C(PDBName=C6,ResName=DG5,ResNum=1)                  0   50.13900000   49.57500000   42.27000000 L
 O(PDBName=O6,ResName=DG5,ResNum=1)                  0   49.09000000   50.21300000   42.19500000 L
 N(PDBName=N1,ResName=DG5,ResNum=1)                  0   50.42800000   49.00900000   43.49600000 L
 H(PDBName=H1,ResName=DG5,ResNum=1)                  0   49.77700000   49.17600000   44.24500000 L
 C(PDBName=C2,ResName=DG5,ResNum=1)                  0   51.57200000   48.33500000   43.75900000 L
 N(PDBName=N2,ResName=DG5,ResNum=1)                  0   51.77800000   47.93900000   44.98300000 L
 H(PDBName=H21,ResName=DG5,ResNum=1)                 0   51.08300000   48.08600000   45.70900000 L
 H(PDBName=H22,ResName=DG5,ResNum=1)                 0   52.59100000   47.36700000   45.11800000 L
 N(PDBName=N3,ResName=DG5,ResNum=1)                  0   52.54800000   48.12200000   42.89000000 L
 C(PDBName=C4,ResName=DG5,ResNum=1)                  0   52.27800000   48.64700000   41.65800000 L
 C(PDBName=C3P,ResName=DG5,ResNum=1)                 0   55.34800000   46.10700000   39.17400000 L
 H(PDBName=H3P,ResName=DG5,ResNum=1)                 0   55.15500000   45.45400000   38.32800000 L
 C(PDBName=C2P,ResName=DG5,ResNum=1)                 0   54.05500000   46.43500000   39.90200000 L
 H(PDBName=H2P,ResName=DG5,ResNum=1)                 0   53.22800000   46.47900000   39.19300000 L
 H(PDBName=H2PP,ResName=DG5,ResNum=1)                0   53.82900000   45.72700000   40.69700000 L
 O(PDBName=O3P,ResName=DG5,ResNum=1)                 0   56.32300000   45.53500000   40.03500000 L
 P(PDBName=P,ResName=DG,ResNum=2)                    0   56.25900000   43.99200000   40.43800000 L
 O(PDBName=OP1,ResName=DG,ResNum=2)                  0   57.56600000   43.57600000   40.98600000 L
 O(PDBName=OP2,ResName=DG,ResNum=2)                  0   55.70000000   43.24500000   39.28700000 L
 O(PDBName=O5P,ResName=DG,ResNum=2)                  0   55.21100000   43.91000000   41.64600000 L
 C(PDBName=C5P,ResName=DG,ResNum=2)                  0   55.55200000   44.45600000   42.91800000 L
 H(PDBName=H5P,ResName=DG,ResNum=2)                  0   55.70600000   45.53100000   42.81800000 L
 H(PDBName=H5PP,ResName=DG,ResNum=2)                 0   56.49100000   44.01200000   43.25200000 L
 C(PDBName=C4P,ResName=DG,ResNum=2)                  0   54.51100000   44.21500000   44.02000000 L
 H(PDBName=H4P,ResName=DG,ResNum=2)                  0   54.97300000   44.50000000   44.96500000 L
 O(PDBName=O4P,ResName=DG,ResNum=2)                  0   53.36200000   45.03200000   43.86500000 L
 C(PDBName=C1P,ResName=DG,ResNum=2)                  0   52.23000000   44.34900000   44.37300000 L
 H(PDBName=H1P,ResName=DG,ResNum=2)                  0   52.10600000   44.52700000   45.44500000 L
 N(PDBName=N9,ResName=DG,ResNum=2)                   0   51.03600000   44.82400000   43.63100000 L
 C(PDBName=C8,ResName=DG,ResNum=2)                   0   50.87100000   44.87500000   42.26800000 L
 H(PDBName=H8,ResName=DG,ResNum=2)                   0   51.61800000   44.49500000   41.58500000 L
 N(PDBName=N7,ResName=DG,ResNum=2)                   0   49.76800000   45.45000000   41.87600000 L
 C(PDBName=C5,ResName=DG,ResNum=2)                   0   49.14200000   45.81000000   43.07800000 L
 C(PDBName=C6,ResName=DG,ResNum=2)                   0   47.92000000   46.52700000   43.34100000 L
 O(PDBName=O6,ResName=DG,ResNum=2)                   0   47.09600000   46.99100000   42.55600000 L
 N(PDBName=N1,ResName=DG,ResNum=2)                   0   47.68000000   46.73900000   44.68200000 L
 H(PDBName=H1,ResName=DG,ResNum=2)                   0   46.84500000   47.24600000   44.93100000 L
 C(PDBName=C2,ResName=DG,ResNum=2)                   0   48.49300000   46.30300000   45.66900000 L
 N(PDBName=N2,ResName=DG,ResNum=2)                   0   48.12500000   46.56200000   46.89300000 L
 H(PDBName=H21,ResName=DG,ResNum=2)                  0   47.24100000   47.03300000   47.08200000 L
 H(PDBName=H22,ResName=DG,ResNum=2)                  0   48.63300000   46.07900000   47.60900000 L
 N(PDBName=N3,ResName=DG,ResNum=2)                   0   49.62600000   45.63100000   45.48500000 L
 C(PDBName=C4,ResName=DG,ResNum=2)                   0   49.90600000   45.41700000   44.15900000 L
 C(PDBName=C3P,ResName=DG,ResNum=2)                  0   54.06100000   42.75400000   44.15400000 L
 H(PDBName=H3P,ResName=DG,ResNum=2)                  0   54.39600000   42.16900000   43.29600000 L
 C(PDBName=C2P,ResName=DG,ResNum=2)                  0   52.53200000   42.87500000   44.11500000 L
 H(PDBName=H2P,ResName=DG,ResNum=2)                  0   52.18100000   42.59800000   43.12200000 L
 H(PDBName=H2PP,ResName=DG,ResNum=2)                 0   52.05500000   42.24900000   44.86300000 L
 O(PDBName=O3P,ResName=DG,ResNum=2)                  0   54.61400000   42.22000000   45.35300000 L
 P(PDBName=P,ResName=DG,ResNum=3)                    0   54.26000000   40.76900000   45.93100000 L
 O(PDBName=OP1,ResName=DG,ResNum=3)                  0   55.43000000   40.31000000   46.71600000 L
 O(PDBName=OP2,ResName=DG,ResNum=3)                  0   53.72000000   39.91900000   44.84200000 L
 O(PDBName=O5P,ResName=DG,ResNum=3)                  0   53.07800000   41.13500000   46.93500000 L
 C(PDBName=C5P,ResName=DG,ResNum=3)                  0   53.29600000   42.07500000   47.97900000 L
 H(PDBName=H5P,ResName=DG,ResNum=3)                  0   53.60600000   43.03000000   47.55300000 L
 H(PDBName=H5PP,ResName=DG,ResNum=3)                 0   54.09300000   41.70500000   48.62300000 L
 C(PDBName=C4P,ResName=DG,ResNum=3)                  0   52.06800000   42.32600000   48.85300000 L
 H(PDBName=H4P,ResName=DG,ResNum=3)                  0   52.36000000   43.00500000   49.65500000 L
 O(PDBName=O4P,ResName=DG,ResNum=3)                  0   51.01700000   42.93200000   48.10900000 L
 C(PDBName=C1P,ResName=DG,ResNum=3)                  0   49.83700000   42.14900000   48.22200000 L
 H(PDBName=H1P,ResName=DG,ResNum=3)                  0   49.17800000   42.56300000   48.99200000 L
 N(PDBName=N9,ResName=DG,ResNum=3)                   0   49.14800000   42.14200000   46.90900000 L
 C(PDBName=C8,ResName=DG,ResNum=3)                   0   49.55100000   41.52600000   45.75200000 L
 H(PDBName=H8,ResName=DG,ResNum=3)                   0   50.46000000   40.93600000   45.71000000 L
 N(PDBName=N7,ResName=DG,ResNum=3)                   0   48.76500000   41.72400000   44.72600000 L
 C(PDBName=C5,ResName=DG,ResNum=3)                   0   47.75700000   42.55600000   45.24600000 L
 C(PDBName=C6,ResName=DG,ResNum=3)                   0   46.59500000   43.16200000   44.64100000 L
 O(PDBName=O6,ResName=DG,ResNum=3)                   0   46.20300000   43.12600000   43.47700000 L
 N(PDBName=N1,ResName=DG,ResNum=3)                   0   45.82500000   43.88800000   45.52200000 L
 H(PDBName=H1,ResName=DG,ResNum=3)                   0   45.01000000   44.35500000   45.15900000 L
 C(PDBName=C2,ResName=DG,ResNum=3)                   0   46.11100000   44.03300000   46.83100000 L
 N(PDBName=N2,ResName=DG,ResNum=3)                   0   45.28400000   44.75300000   47.53800000 L
 H(PDBName=H21,ResName=DG,ResNum=3)                  0   44.44800000   45.15700000   47.11600000 L
 H(PDBName=H22,ResName=DG,ResNum=3)                  0   45.47800000   44.85100000   48.51300000 L
 N(PDBName=N3,ResName=DG,ResNum=3)                   0   47.17700000   43.51400000   47.43700000 L
 C(PDBName=C4,ResName=DG,ResNum=3)                   0   47.97100000   42.78700000   46.59000000 L
 C(PDBName=C3P,ResName=DG,ResNum=3)                  0   51.54800000   41.03700000   49.48200000 L
 H(PDBName=H3P,ResName=DG,ResNum=3)                  0   52.27200000   40.22700000   49.37900000 L
 C(PDBName=C2P,ResName=DG,ResNum=3)                  0   50.30900000   40.75500000   48.64000000 L
 H(PDBName=H2P,ResName=DG,ResNum=3)                  0   50.60400000   40.16900000   47.77100000 L
 H(PDBName=H2PP,ResName=DG,ResNum=3)                 0   49.54800000   40.22700000   49.20800000 L
 O(PDBName=O3P,ResName=DG,ResNum=3)                  0   51.30300000   41.29400000   50.85100000 L
 P(PDBName=P,ResName=DC,ResNum=4)                    0   50.71300000   40.19900000   51.83700000 L
 O(PDBName=OP1,ResName=DC,ResNum=4)                  0   51.25200000   40.50900000   53.18100000 L
 O(PDBName=OP2,ResName=DC,ResNum=4)                  0   50.95700000   38.86300000   51.25900000 L
 O(PDBName=O5P,ResName=DC,ResNum=4)                  0   49.15800000   40.53300000   51.77900000 L
 C(PDBName=C5P,ResName=DC,ResNum=4)                  0   48.69000000   41.81800000   52.15500000 L
 H(PDBName=H5P,ResName=DC,ResNum=4)                  0   49.24500000   42.58200000   51.61100000 L
 H(PDBName=H5PP,ResName=DC,ResNum=4)                 0   48.86400000   41.96200000   53.22200000 L
 C(PDBName=C4P,ResName=DC,ResNum=4)                  0   47.20100000   42.00900000   51.86000000 L
 H(PDBName=H4P,ResName=DC,ResNum=4)                  0   46.92500000   42.99200000   52.23600000 L
 O(PDBName=O4P,ResName=DC,ResNum=4)                  0   46.92800000   41.98500000   50.46500000 L
 C(PDBName=C1P,ResName=DC,ResNum=4)                  0   45.68400000   41.33700000   50.24600000 L
 H(PDBName=H1P,ResName=DC,ResNum=4)                  0   44.85400000   42.03900000   50.39200000 L
 N(PDBName=N1,ResName=DC,ResNum=4)                   0   45.66400000   40.77900000   48.85800000 L
 C(PDBName=C6,ResName=DC,ResNum=4)                   0   46.68700000   39.97600000   48.42000000 L
 H(PDBName=H6,ResName=DC,ResNum=4)                   0   47.45800000   39.68700000   49.12600000 L
 C(PDBName=C5,ResName=DC,ResNum=4)                   0   46.75100000   39.59600000   47.11800000 L
 H(PDBName=H5,ResName=DC,ResNum=4)                   0   47.57200000   38.98900000   46.77000000 L
 C(PDBName=C4,ResName=DC,ResNum=4)                   0   45.72400000   40.06000000   46.25200000 L
 N(PDBName=N4,ResName=DC,ResNum=4)                   0   45.77400000   39.80900000   44.97300000 L
 H(PDBName=H41,ResName=DC,ResNum=4)                  0   45.08900000   40.27100000   44.38400000 L
 H(PDBName=H42,ResName=DC,ResNum=4)                  0   46.64600000   39.49900000   44.58100000 L
 N(PDBName=N3,ResName=DC,ResNum=4)                   0   44.71300000   40.79700000   46.65000000 L
 C(PDBName=C2,ResName=DC,ResNum=4)                   0   44.65900000   41.16700000   47.95700000 L
 O(PDBName=O2,ResName=DC,ResNum=4)                   0   43.70100000   41.84600000   48.31000000 L
 C(PDBName=C3P,ResName=DC,ResNum=4)                  0   46.30900000   40.96600000   52.54000000 L
 H(PDBName=H3P,ResName=DC,ResNum=4)                  0   46.90800000   40.25100000   53.11200000 L
 C(PDBName=C2P,ResName=DC,ResNum=4)                  0   45.64600000   40.27500000   51.34800000 L
 H(PDBName=H2P,ResName=DC,ResNum=4)                  0   46.23900000   39.40600000   51.06400000 L
 H(PDBName=H2PP,ResName=DC,ResNum=4)                 0   44.62700000   39.98000000   51.58500000 L
 O(PDBName=O3P,ResName=DC,ResNum=4)                  0   45.41100000   41.65900000   53.39200000 L
 P(PDBName=P,ResName=DC,ResNum=5)                    0   44.42600000   40.90500000   54.39700000 L
 O(PDBName=OP1,ResName=DC,ResNum=5)                  0   44.31800000   41.79500000   55.57100000 L
 O(PDBName=OP2,ResName=DC,ResNum=5)                  0   44.86200000   39.50400000   54.58400000 L
 O(PDBName=O5P,ResName=DC,ResNum=5)                  0   43.06400000   40.95300000   53.57400000 L
 C(PDBName=C5P,ResName=DC,ResNum=5)                  0   42.37100000   42.18400000   53.40900000 L
 H(PDBName=H5P,ResName=DC,ResNum=5)                  0   43.07400000   42.96300000   53.11500000 L
 H(PDBName=H5PP,ResName=DC,ResNum=5)                 0   41.91400000   42.45800000   54.35900000 L
 C(PDBName=C4P,ResName=DC,ResNum=5)                  0   41.27400000   42.11300000   52.35000000 L
 H(PDBName=H4P,ResName=DC,ResNum=5)                  0   40.82100000   43.09800000   52.23600000 L
 O(PDBName=O4P,ResName=DC,ResNum=5)                  0   41.82300000   41.71700000   51.10800000 L
 C(PDBName=C1P,ResName=DC,ResNum=5)                  0   40.80800000   41.08800000   50.35100000 L
 H(PDBName=H1P,ResName=DC,ResNum=5)                  0   40.31800000   41.82500000   49.70500000 L
 N(PDBName=N1,ResName=DC,ResNum=5)                   0   41.40500000   40.00500000   49.52800000 L
 C(PDBName=C6,ResName=DC,ResNum=5)                   0   42.38300000   39.19300000   50.04700000 L
 H(PDBName=H6,ResName=DC,ResNum=5)                   0   42.65400000   39.31800000   51.09000000 L
 C(PDBName=C5,ResName=DC,ResNum=5)                   0   43.01300000   38.29100000   49.25000000 L
 H(PDBName=H5,ResName=DC,ResNum=5)                   0   43.80200000   37.67500000   49.64700000 L
 C(PDBName=C4,ResName=DC,ResNum=5)                   0   42.59000000   38.23100000   47.89300000 L
 N(PDBName=N4,ResName=DC,ResNum=5)                   0   43.16900000   37.43500000   47.04600000 L
 H(PDBName=H41,ResName=DC,ResNum=5)                  0   42.79000000   37.45700000   46.10600000 L
 H(PDBName=H42,ResName=DC,ResNum=5)                  0   43.93800000   36.85700000   47.30400000 L
 N(PDBName=N3,ResName=DC,ResNum=5)                   0   41.61900000   38.95900000   47.39400000 L
 C(PDBName=C2,ResName=DC,ResNum=5)                   0   40.99800000   39.85000000   48.19900000 L
 O(PDBName=O2,ResName=DC,ResNum=5)                   0   40.06100000   40.49200000   47.73000000 L
 C(PDBName=C3P,ResName=DC,ResNum=5)                  0   40.18100000   41.11400000   52.71700000 L
 H(PDBName=H3P,ResName=DC,ResNum=5)                  0   40.58900000   40.32600000   53.35700000 L
 C(PDBName=C2P,ResName=DC,ResNum=5)                  0   39.79500000   40.54300000   51.35800000 L
 H(PDBName=H2P,ResName=DC,ResNum=5)                  0   39.84700000   39.45900000   51.41100000 L
 H(PDBName=H2PP,ResName=DC,ResNum=5)                 0   38.79500000   40.86400000   51.07000000 L
 O(PDBName=O3P,ResName=DC,ResNum=5)                  0   39.11600000   41.81000000   53.34400000 L
 P(PDBName=P,ResName=DC,ResNum=6)                    0   37.85900000   41.06300000   53.96700000 L
 O(PDBName=OP1,ResName=DC,ResNum=6)                  0   37.26900000   41.99600000   54.95200000 L
 O(PDBName=OP2,ResName=DC,ResNum=6)                  0   38.28100000   39.73100000   54.45200000 L
 O(PDBName=O5P,ResName=DC,ResNum=6)                  0   36.85200000   40.84500000   52.75100000 L
 C(PDBName=C5P,ResName=DC,ResNum=6)                  0   36.28600000   41.93800000   52.03800000 L
 H(PDBName=H5P,ResName=DC,ResNum=6)                  0   37.07600000   42.63400000   51.76100000 L
 H(PDBName=H5PP,ResName=DC,ResNum=6)                 0   35.57000000   42.45900000   52.67200000 L
 C(PDBName=C4P,ResName=DC,ResNum=6)                  0   35.57700000   41.47900000   50.75500000 L
 H(PDBName=H4P,ResName=DC,ResNum=6)                  0   35.14600000   42.34900000   50.25800000 L
 O(PDBName=O4P,ResName=DC,ResNum=6)                  0   36.52700000   40.88900000   49.88000000 L
 C(PDBName=C1P,ResName=DC,ResNum=6)                  0   35.98900000   39.72900000   49.27300000 L
 H(PDBName=H1P,ResName=DC,ResNum=6)                  0   35.64400000   39.96500000   48.26000000 L
 N(PDBName=N1,ResName=DC,ResNum=6)                   0   37.04700000   38.68200000   49.24000000 L
 C(PDBName=C6,ResName=DC,ResNum=6)                   0   37.67300000   38.28800000   50.39800000 L
 H(PDBName=H6,ResName=DC,ResNum=6)                   0   37.36900000   38.74800000   51.33400000 L
 C(PDBName=C5,ResName=DC,ResNum=6)                   0   38.68700000   37.38600000   50.35300000 L
 H(PDBName=H5,ResName=DC,ResNum=6)                   0   39.20800000   37.11300000   51.25700000 L
 C(PDBName=C4,ResName=DC,ResNum=6)                   0   39.05200000   36.88800000   49.07200000 L
 N(PDBName=N4,ResName=DC,ResNum=6)                   0   40.02700000   36.03700000   48.95900000 L
 H(PDBName=H41,ResName=DC,ResNum=6)                  0   40.25400000   35.73200000   48.01700000 L
 H(PDBName=H42,ResName=DC,ResNum=6)                  0   40.48400000   35.68300000   49.77200000 L
 N(PDBName=N3,ResName=DC,ResNum=6)                   0   38.44300000   37.22400000   47.96000000 L
 C(PDBName=C2,ResName=DC,ResNum=6)                   0   37.43100000   38.12300000   48.01600000 L
 O(PDBName=O2,ResName=DC,ResNum=6)                   0   36.86400000   38.40200000   46.96500000 L
 C(PDBName=C3P,ResName=DC,ResNum=6)                  0   34.45400000   40.47400000   51.01900000 L
 H(PDBName=H3P,ResName=DC,ResNum=6)                  0   34.48100000   40.16100000   52.06500000 L
 C(PDBName=C2P,ResName=DC,ResNum=6)                  0   34.79400000   39.29100000   50.12000000 L
 H(PDBName=H2P,ResName=DC,ResNum=6)                  0   35.04200000   38.43300000   50.74200000 L
 H(PDBName=H2PP,ResName=DC,ResNum=6)                 0   33.95900000   39.04000000   49.46800000 L
 O(PDBName=O3P,ResName=DC,ResNum=6)                  0   33.19200000   41.04500000   50.70400000 L
 P(PDBName=P,ResName=DG,ResNum=7)                    0   31.82400000   40.31500000   51.10500000 L
 O(PDBName=OP1,ResName=DG,ResNum=7)                  0   30.75400000   41.32400000   51.23600000 L
 O(PDBName=OP2,ResName=DG,ResNum=7)                  0   32.10100000   39.45200000   52.27500000 L
 O(PDBName=O5P,ResName=DG,ResNum=7)                  0   31.50300000   39.34500000   49.88100000 L
 C(PDBName=C5P,ResName=DG,ResNum=7)                  0   31.19500000   39.84100000   48.58600000 L
 H(PDBName=H5P,ResName=DG,ResNum=7)                  0   31.97600000   40.53300000   48.26800000 L
 H(PDBName=H5PP,ResName=DG,ResNum=7)                 0   30.24600000   40.38000000   48.61600000 L
 C(PDBName=C4P,ResName=DG,ResNum=7)                  0   31.10500000   38.70400000   47.55200000 L
 H(PDBName=H4P,ResName=DG,ResNum=7)                  0   30.80000000   39.12100000   46.59200000 L
 O(PDBName=O4P,ResName=DG,ResNum=7)                  0   32.38600000   38.08500000   47.42400000 L
 C(PDBName=C1P,ResName=DG,ResNum=7)                  0   32.26100000   36.69700000   47.70100000 L
 H(PDBName=H1P,ResName=DG,ResNum=7)                  0   32.06800000   36.16200000   46.76400000 L
 N(PDBName=N9,ResName=DG,ResNum=7)                   0   33.50000000   36.15400000   48.32200000 L
 C(PDBName=C8,ResName=DG,ResNum=7)                   0   33.88000000   36.18500000   49.64600000 L
 H(PDBName=H8,ResName=DG,ResNum=7)                   0   33.28100000   36.69200000   50.39300000 L
 N(PDBName=N7,ResName=DG,ResNum=7)                   0   35.01400000   35.58600000   49.91100000 L
 C(PDBName=C5,ResName=DG,ResNum=7)                   0   35.41700000   35.11400000   48.64900000 L
 C(PDBName=C6,ResName=DG,ResNum=7)                   0   36.57900000   34.36200000   48.25000000 L
 O(PDBName=O6,ResName=DG,ResNum=7)                   0   37.50800000   33.94500000   48.94400000 L
 N(PDBName=N1,ResName=DG,ResNum=7)                   0   36.63100000   34.09300000   46.90100000 L
 H(PDBName=H1,ResName=DG,ResNum=7)                   0   37.41300000   33.55700000   46.55600000 L
 C(PDBName=C2,ResName=DG,ResNum=7)                   0   35.67800000   34.47700000   46.02200000 L
 N(PDBName=N2,ResName=DG,ResNum=7)                   0   35.82600000   34.09800000   44.78700000 L
 H(PDBName=H21,ResName=DG,ResNum=7)                  0   36.63200000   33.54900000   44.50200000 L
 H(PDBName=H22,ResName=DG,ResNum=7)                  0   35.07600000   34.30400000   44.15600000 L
 N(PDBName=N3,ResName=DG,ResNum=7)                   0   34.57200000   35.14300000   46.34000000 L
 C(PDBName=C4,ResName=DG,ResNum=7)                   0   34.50000000   35.45400000   47.67300000 L
 C(PDBName=C3P,ResName=DG,ResNum=7)                  0   30.10100000   37.61000000   47.96500000 L
 H(PDBName=H3P,ResName=DG,ResNum=7)                  0   29.37300000   37.98300000   48.68800000 L
 C(PDBName=C2P,ResName=DG,ResNum=7)                  0   31.03500000   36.60200000   48.61800000 L
 H(PDBName=H2P,ResName=DG,ResNum=7)                  0   31.28200000   36.91800000   49.63200000 L
 H(PDBName=H2PP,ResName=DG,ResNum=7)                 0   30.61900000   35.59700000   48.62700000 L
 O(PDBName=O3P,ResName=DG,ResNum=7)                  0   29.47100000   36.94600000   46.88000000 L
 P(PDBName=P,ResName=DG,ResNum=8)                    0   28.19400000   37.53600000   46.12800000 L
 O(PDBName=OP1,ResName=DG,ResNum=8)                  0   28.38200000   38.94700000   45.74200000 L
 O(PDBName=OP2,ResName=DG,ResNum=8)                  0   26.99400000   37.12500000   46.89400000 L
 O(PDBName=O5P,ResName=DG,ResNum=8)                  0   28.23500000   36.58900000   44.84200000 L
 C(PDBName=C5P,ResName=DG,ResNum=8)                  0   29.12400000   36.85500000   43.75700000 L
 H(PDBName=H5P,ResName=DG,ResNum=8)                  0   29.91500000   37.52600000   44.09400000 L
 H(PDBName=H5PP,ResName=DG,ResNum=8)                 0   28.56800000   37.36700000   42.97100000 L
 C(PDBName=C4P,ResName=DG,ResNum=8)                  0   29.80100000   35.60300000   43.16400000 L
 H(PDBName=H4P,ResName=DG,ResNum=8)                  0   30.23700000   35.88500000   42.20500000 L
 O(PDBName=O4P,ResName=DG,ResNum=8)                  0   30.85300000   35.14900000   44.01200000 L
 C(PDBName=C1P,ResName=DG,ResNum=8)                  0   30.80900000   33.73300000   44.10800000 L
 H(PDBName=H1P,ResName=DG,ResNum=8)                  0   31.36700000   33.26400000   43.29200000 L
 N(PDBName=N9,ResName=DG,ResNum=8)                   0   31.35400000   33.30900000   45.42200000 L
 C(PDBName=C8,ResName=DG,ResNum=8)                   0   30.90000000   33.68000000   46.66300000 L
 H(PDBName=H8,ResName=DG,ResNum=8)                   0   30.03800000   34.32200000   46.77900000 L
 N(PDBName=N7,ResName=DG,ResNum=8)                   0   31.60800000   33.23700000   47.66800000 L
 C(PDBName=C5,ResName=DG,ResNum=8)                   0   32.62600000   32.50800000   47.03100000 L
 C(PDBName=C6,ResName=DG,ResNum=8)                   0   33.76800000   31.81800000   47.57000000 L
 O(PDBName=O6,ResName=DG,ResNum=8)                   0   34.13500000   31.73500000   48.74500000 L
 N(PDBName=N1,ResName=DG,ResNum=8)                   0   34.54000000   31.19000000   46.61700000 L
 H(PDBName=H1,ResName=DG,ResNum=8)                   0   35.35600000   30.68500000   46.93000000 L
 C(PDBName=C2,ResName=DG,ResNum=8)                   0   34.27300000   31.23200000   45.29100000 L
 N(PDBName=N2,ResName=DG,ResNum=8)                   0   35.06700000   30.54300000   44.51900000 L
 H(PDBName=H21,ResName=DG,ResNum=8)                  0   35.84800000   30.01600000   44.90700000 L
 H(PDBName=H22,ResName=DG,ResNum=8)                  0   34.83300000   30.50800000   43.54600000 L
 N(PDBName=N3,ResName=DG,ResNum=8)                   0   33.25200000   31.88700000   44.73500000 L
 C(PDBName=C4,ResName=DG,ResNum=8)                   0   32.45900000   32.51600000   45.66100000 L
 C(PDBName=C3P,ResName=DG,ResNum=8)                  0   28.84000000   34.43400000   42.92300000 L
 H(PDBName=H3P,ResName=DG,ResNum=8)                  0   27.81800000   34.75300000   43.12300000 L
 C(PDBName=C2P,ResName=DG,ResNum=8)                  0   29.31900000   33.42900000   43.97300000 L
 H(PDBName=H2P,ResName=DG,ResNum=8)                  0   28.81000000   33.62300000   44.91500000 L
 H(PDBName=H2PP,ResName=DG,ResNum=8)                 0   29.15000000   32.40100000   43.66100000 L
 O(PDBName=O3P,ResName=DG,ResNum=8)                  0   28.93200000   33.97100000   41.58400000 L
 P(PDBName=P,ResName=DG,ResNum=9)                    0   28.02300000   32.77300000   41.02700000 L
 O(PDBName=OP1,ResName=DG,ResNum=9)                  0   27.52700000   33.13100000   39.68200000 L
 O(PDBName=OP2,ResName=DG,ResNum=9)                  0   27.05000000   32.38400000   42.07700000 L
 O(PDBName=O5P,ResName=DG,ResNum=9)                  0   29.08800000   31.59000000   40.86600000 L
 C(PDBName=C5P,ResName=DG,ResNum=9)                  0   30.20800000   31.76200000   40.00100000 L
 H(PDBName=H5P,ResName=DG,ResNum=9)                  0   30.83700000   32.56400000   40.38800000 L
 H(PDBName=H5PP,ResName=DG,ResNum=9)                 0   29.84300000   32.07000000   39.02000000 L
 C(PDBName=C4P,ResName=DG,ResNum=9)                  0   31.08000000   30.51200000   39.80600000 L
 H(PDBName=H4P,ResName=DG,ResNum=9)                  0   31.78000000   30.72700000   38.99800000 L
 O(PDBName=O4P,ResName=DG,ResNum=9)                  0   31.83200000   30.21400000   40.97800000 L
 C(PDBName=C1P,ResName=DG,ResNum=9)                  0   31.44100000   28.96000000   41.52000000 L
 H(PDBName=H1P,ResName=DG,ResNum=9)                  0   32.23400000   28.22300000   41.36100000 L
 N(PDBName=N9,ResName=DG,ResNum=9)                   0   31.18700000   29.11800000   42.97700000 L
 C(PDBName=C8,ResName=DG,ResNum=9)                   0   30.17600000   29.82500000   43.57900000 L
 H(PDBName=H8,ResName=DG,ResNum=9)                   0   29.43300000   30.36300000   43.00800000 L
 N(PDBName=N7,ResName=DG,ResNum=9)                   0   30.19300000   29.80300000   44.88300000 L
 C(PDBName=C5,ResName=DG,ResNum=9)                   0   31.33000000   29.03700000   45.18200000 L
 C(PDBName=C6,ResName=DG,ResNum=9)                   0   31.93400000   28.67000000   46.44000000 L
 O(PDBName=O6,ResName=DG,ResNum=9)                   0   31.59400000   28.95100000   47.59200000 L
 N(PDBName=N1,ResName=DG,ResNum=9)                   0   33.07600000   27.90800000   46.30100000 L
 H(PDBName=H1,ResName=DG,ResNum=9)                   0   33.57700000   27.64600000   47.13600000 L
 C(PDBName=C2,ResName=DG,ResNum=9)                   0   33.58400000   27.52500000   45.10700000 L
 N(PDBName=N2,ResName=DG,ResNum=9)                   0   34.67300000   26.80700000   45.14300000 L
 H(PDBName=H21,ResName=DG,ResNum=9)                  0   35.10900000   26.55300000   46.02700000 L
 H(PDBName=H22,ResName=DG,ResNum=9)                  0   35.05100000   26.51600000   44.26600000 L
 N(PDBName=N3,ResName=DG,ResNum=9)                   0   33.06200000   27.82700000   43.91700000 L
 C(PDBName=C4,ResName=DG,ResNum=9)                   0   31.93600000   28.60200000   44.01700000 L
 C(PDBName=C3P,ResName=DG,ResNum=9)                  0   30.26100000   29.28100000   39.41800000 L
 H(PDBName=H3P,ResName=DG,ResNum=9)                  0   29.26800000   29.58700000   39.08500000 L
 C(PDBName=C2P,ResName=DG,ResNum=9)                  0   30.18100000   28.54200000   40.75200000 L
 H(PDBName=H2P,ResName=DG,ResNum=9)                  0   29.28800000   28.86600000   41.28200000 L
 H(PDBName=H2PP,ResName=DG,ResNum=9)                 0   30.15700000   27.46800000   40.60000000 L
 O(PDBName=O3P,ResName=DG,ResNum=9)                  0   30.90500000   28.56000000   38.37600000 L
 P(PDBName=P,ResName=DC,ResNum=10)                   0   30.24800000   27.26300000   37.70700000 L
 O(PDBName=OP1,ResName=DC,ResNum=10)                 0   30.72000000   27.15700000   36.30300000 L
 O(PDBName=OP2,ResName=DC,ResNum=10)                 0   28.79400000   27.26100000   37.97600000 L
 O(PDBName=O5P,ResName=DC,ResNum=10)                 0   30.91800000   26.07300000   38.54400000 L
 C(PDBName=C5P,ResName=DC,ResNum=10)                 0   32.33100000   25.87600000   38.51700000 L
 H(PDBName=H5P,ResName=DC,ResNum=10)                 0   32.83000000   26.84100000   38.61700000 L
 H(PDBName=H5PP,ResName=DC,ResNum=10)                0   32.61700000   25.44100000   37.56000000 L
 C(PDBName=C4P,ResName=DC,ResNum=10)                 0   32.84700000   24.97300000   39.64600000 L
 H(PDBName=H4P,ResName=DC,ResNum=10)                 0   33.93400000   24.91200000   39.56900000 L
 O(PDBName=O4P,ResName=DC,ResNum=10)                 0   32.52700000   25.53200000   40.91300000 L
 C(PDBName=C1P,ResName=DC,ResNum=10)                 0   32.38700000   24.49100000   41.86300000 L
 H(PDBName=H1P,ResName=DC,ResNum=10)                 0   33.35400000   24.25400000   42.32100000 L
 N(PDBName=N1,ResName=DC,ResNum=10)                  0   31.40000000   24.90500000   42.90100000 L
 C(PDBName=C6,ResName=DC,ResNum=10)                  0   30.20600000   25.45700000   42.51300000 L