
%nprocshared=40

%mem=364GB

%chk=DLCa0s.chk

#p b3lyp/6-31g(d,p) scrf=(solvent=water) geom=connectivity pop=orbitals=10 scf=maxcycles=256  guess=read output=(matrix,i4lab)

DLCa_0s

-22 1
 H(PDBName=HO5P,ResName=DG5,ResNum=1)                0   54.10100000   46.70300000   37.74300000 L
 O(PDBName=O5P,ResName=DG5,ResNum=1)                 0   54.12200000   46.06400000   38.47300000 L
 C(PDBName=C5P,ResName=DG5,ResNum=1)                 0   55.42700000   46.08700000   39.03600000 L
 H(PDBName=H5P,ResName=DG5,ResNum=1)                 0   55.84600000   47.08700000   38.91800000 L
 H(PDBName=H5PP,ResName=DG5,ResNum=1)                0   56.06400000   45.39300000   38.48400000 L
 C(PDBName=C4P,ResName=DG5,ResNum=1)                 0   55.49000000   45.73300000   40.53400000 L
 H(PDBName=H4P,ResName=DG5,ResNum=1)                 0   56.54200000   45.72100000   40.80900000 L
 O(PDBName=O4P,ResName=DG5,ResNum=1)                 0   54.84300000   46.73800000   41.30800000 L
 C(PDBName=C1P,ResName=DG5,ResNum=1)                 0   53.80400000   46.14700000   42.07200000 L
 H(PDBName=H1P,ResName=DG5,ResNum=1)                 0   54.15600000   45.95600000   43.09000000 L
 N(PDBName=N9,ResName=DG5,ResNum=1)                  0   52.61400000   47.02400000   42.10800000 L
 C(PDBName=C8,ResName=DG5,ResNum=1)                  0   51.81300000   47.42100000   41.06400000 L
 H(PDBName=H8,ResName=DG5,ResNum=1)                  0   52.04000000   47.17100000   40.03400000 L
 N(PDBName=N7,ResName=DG5,ResNum=1)                  0   50.76400000   48.11400000   41.42000000 L
 C(PDBName=C5,ResName=DG5,ResNum=1)                  0   50.87500000   48.16800000   42.81400000 L
 C(PDBName=C6,ResName=DG5,ResNum=1)                  0   50.01500000   48.74300000   43.81000000 L
 O(PDBName=O6,ResName=DG5,ResNum=1)                  0   48.94500000   49.33200000   43.66400000 L
 N(PDBName=N1,ResName=DG5,ResNum=1)                  0   50.47100000   48.58100000   45.09900000 L
 H(PDBName=H1,ResName=DG5,ResNum=1)                  0   49.90700000   48.95300000   45.84400000 L
 C(PDBName=C2,ResName=DG5,ResNum=1)                  0   51.64900000   47.99500000   45.40600000 L
 N(PDBName=N2,ResName=DG5,ResNum=1)                  0   51.99000000   48.01800000   46.66300000 L
 H(PDBName=H21,ResName=DG5,ResNum=1)                 0   51.38600000   48.43300000   47.36200000 L
 H(PDBName=H22,ResName=DG5,ResNum=1)                 0   52.93700000   47.73700000   46.88500000 L
 N(PDBName=N3,ResName=DG5,ResNum=1)                  0   52.47400000   47.43000000   44.53100000 L
 C(PDBName=C4,ResName=DG5,ResNum=1)                  0   52.02400000   47.53800000   43.24200000 L
 C(PDBName=C3P,ResName=DG5,ResNum=1)                 0   54.86400000   44.37800000   40.91100000 L
 H(PDBName=H3P,ResName=DG5,ResNum=1)                 0   54.78200000   43.73100000   40.03600000 L
 C(PDBName=C2P,ResName=DG5,ResNum=1)                 0   53.48900000   44.82100000   41.38700000 L
 H(PDBName=H2P,ResName=DG5,ResNum=1)                 0   52.83600000   44.97400000   40.52800000 L
 H(PDBName=H2PP,ResName=DG5,ResNum=1)                0   53.04700000   44.10900000   42.08000000 L
 O(PDBName=O3P,ResName=DG5,ResNum=1)                 0   55.61800000   43.73700000   41.94000000 L
 P(PDBName=P,ResName=DG,ResNum=2)                    0   55.28700000   42.25100000   42.45300000 L
 O(PDBName=OP1,ResName=DG,ResNum=2)                  0   56.57500000   41.52000000   42.48500000 L
 O(PDBName=OP2,ResName=DG,ResNum=2)                  0   54.17800000   41.68500000   41.65700000 L
 O(PDBName=O5P,ResName=DG,ResNum=2)                  0   54.74700000   42.41700000   43.94200000 L
 C(PDBName=C5P,ResName=DG,ResNum=2)                  0   55.63300000   42.66100000   45.02300000 L
 H(PDBName=H5P,ResName=DG,ResNum=2)                  0   56.19100000   43.56900000   44.80900000 L
 H(PDBName=H5PP,ResName=DG,ResNum=2)                 0   56.34000000   41.83300000   45.10500000 L
 C(PDBName=C4P,ResName=DG,ResNum=2)                  0   54.94800000   42.83500000   46.38900000 L
 H(PDBName=H4P,ResName=DG,ResNum=2)                  0   55.72200000   43.11300000   47.10500000 L
 O(PDBName=O4P,ResName=DG,ResNum=2)                  0   53.97000000   43.87200000   46.32800000 L
 C(PDBName=C1P,ResName=DG,ResNum=2)                  0   52.68900000   43.31900000   46.60000000 L
 H(PDBName=H1P,ResName=DG,ResNum=2)                  0   52.41000000   43.52900000   47.63600000 L
 N(PDBName=N9,ResName=DG,ResNum=2)                   0   51.67500000   43.88200000   45.68400000 L
 C(PDBName=C8,ResName=DG,ResNum=2)                   0   51.52700000   43.67400000   44.33500000 L
 H(PDBName=H8,ResName=DG,ResNum=2)                   0   52.21800000   43.05900000   43.77300000 L
 N(PDBName=N7,ResName=DG,ResNum=2)                   0   50.49700000   44.28000000   43.80500000 L
 C(PDBName=C5,ResName=DG,ResNum=2)                   0   49.89800000   44.91700000   44.90200000 L
 C(PDBName=C6,ResName=DG,ResNum=2)                   0   48.71100000   45.72200000   45.01000000 L
 O(PDBName=O6,ResName=DG,ResNum=2)                   0   47.92900000   46.08500000   44.13200000 L
 N(PDBName=N1,ResName=DG,ResNum=2)                   0   48.44000000   46.13300000   46.29600000 L
 H(PDBName=H1,ResName=DG,ResNum=2)                   0   47.59100000   46.65700000   46.44400000 L
 C(PDBName=C2,ResName=DG,ResNum=2)                   0   49.21700000   45.83900000   47.36100000 L
 N(PDBName=N2,ResName=DG,ResNum=2)                   0   48.78500000   46.21400000   48.52900000 L
 H(PDBName=H21,ResName=DG,ResNum=2)                  0   47.87900000   46.65800000   48.62500000 L
 H(PDBName=H22,ResName=DG,ResNum=2)                  0   49.35200000   45.97200000   49.33500000 L
 N(PDBName=N3,ResName=DG,ResNum=2)                   0   50.34200000   45.13200000   47.31400000 L
 C(PDBName=C4,ResName=DG,ResNum=2)                   0   50.62300000   44.68400000   46.05100000 L
 C(PDBName=C3P,ResName=DG,ResNum=2)                  0   54.23800000   41.57900000   46.91100000 L
 H(PDBName=H3P,ResName=DG,ResNum=2)                  0   54.66500000   40.68000000   46.47100000 L
 C(PDBName=C2P,ResName=DG,ResNum=2)                  0   52.81900000   41.81000000   46.42900000 L
 H(PDBName=H2P,ResName=DG,ResNum=2)                  0   52.74300000   41.53300000   45.38100000 L
 H(PDBName=H2PP,ResName=DG,ResNum=2)                 0   52.08800000   41.26500000   47.02300000 L
 O(PDBName=O3P,ResName=DG,ResNum=2)                  0   54.32800000   41.55000000   48.32800000 L
 P(PDBName=P,ResName=DG,ResNum=3)                    0   53.93300000   40.27700000   49.20800000 L
 O(PDBName=OP1,ResName=DG,ResNum=3)                  0   55.14000000   39.87100000   49.96500000 L
 O(PDBName=OP2,ResName=DG,ResNum=3)                  0   53.27200000   39.25500000   48.37100000 L
 O(PDBName=O5P,ResName=DG,ResNum=3)                  0   52.82200000   40.84900000   50.19400000 L
 C(PDBName=C5P,ResName=DG,ResNum=3)                  0   53.13000000   41.85800000   51.14200000 L
 H(PDBName=H5P,ResName=DG,ResNum=3)                  0   53.44600000   42.76600000   50.62600000 L
 H(PDBName=H5PP,ResName=DG,ResNum=3)                 0   53.96200000   41.49800000   51.74300000 L
 C(PDBName=C4P,ResName=DG,ResNum=3)                  0   51.97300000   42.20600000   52.09700000 L
 H(PDBName=H4P,ResName=DG,ResNum=3)                  0   52.38600000   42.83700000   52.88000000 L
 O(PDBName=O4P,ResName=DG,ResNum=3)                  0   50.92600000   42.92000000   51.44700000 L
 C(PDBName=C1P,ResName=DG,ResNum=3)                  0   49.75800000   42.11500000   51.35900000 L
 H(PDBName=H1P,ResName=DG,ResNum=3)                  0   48.97900000   42.50500000   52.02100000 L
 N(PDBName=N9,ResName=DG,ResNum=3)                   0   49.28800000   42.12100000   49.95400000 L
 C(PDBName=C8,ResName=DG,ResNum=3)                   0   49.90900000   41.57900000   48.85300000 L
 H(PDBName=H8,ResName=DG,ResNum=3)                   0   50.82700000   41.01200000   48.92800000 L
 N(PDBName=N7,ResName=DG,ResNum=3)                   0   49.31400000   41.82000000   47.71800000 L
 C(PDBName=C5,ResName=DG,ResNum=3)                   0   48.19600000   42.57200000   48.10000000 L
 C(PDBName=C6,ResName=DG,ResNum=3)                   0   47.13300000   43.13800000   47.31800000 L
 O(PDBName=O6,ResName=DG,ResNum=3)                   0   46.96500000   43.11000000   46.10000000 L
 N(PDBName=N1,ResName=DG,ResNum=3)                   0   46.17900000   43.78500000   48.06700000 L
 H(PDBName=H1,ResName=DG,ResNum=3)                   0   45.40700000   44.21300000   47.58100000 L
 C(PDBName=C2,ResName=DG,ResNum=3)                   0   46.20400000   43.85400000   49.41500000 L
 N(PDBName=N2,ResName=DG,ResNum=3)                   0   45.15000000   44.38900000   49.96500000 L
 H(PDBName=H21,ResName=DG,ResNum=3)                  0   44.39500000   44.73300000   49.38000000 L
 H(PDBName=H22,ResName=DG,ResNum=3)                  0   45.03200000   44.31200000   50.96300000 L
 N(PDBName=N3,ResName=DG,ResNum=3)                   0   47.16400000   43.35400000   50.19700000 L
 C(PDBName=C4,ResName=DG,ResNum=3)                   0   48.14900000   42.73000000   49.47100000 L
 C(PDBName=C3P,ResName=DG,ResNum=3)                  0   51.35200000   40.96700000   52.74000000 L
 H(PDBName=H3P,ResName=DG,ResNum=3)                  0   52.05600000   40.14000000   52.68100000 L
 C(PDBName=C2P,ResName=DG,ResNum=3)                  0   50.15500000   40.72000000   51.83100000 L
 H(PDBName=H2P,ResName=DG,ResNum=3)                  0   50.45900000   40.09900000   50.99000000 L
 H(PDBName=H2PP,ResName=DG,ResNum=3)                 0   49.33900000   40.24500000   52.36700000 L
 O(PDBName=O3P,ResName=DG,ResNum=3)                  0   50.98600000   41.18500000   54.09700000 L
 P(PDBName=P,ResName=DC,ResNum=4)                    0   50.44500000   39.98400000   55.00500000 L
 O(PDBName=OP1,ResName=DC,ResNum=4)                  0   50.79100000   40.27300000   56.41500000 L
 O(PDBName=OP2,ResName=DC,ResNum=4)                  0   50.88700000   38.69900000   54.41300000 L
 O(PDBName=O5P,ResName=DC,ResNum=4)                  0   48.86300000   40.05500000   54.84000000 L
 C(PDBName=C5P,ResName=DC,ResNum=4)                  0   48.10800000   41.17200000   55.29400000 L
 H(PDBName=H5P,ResName=DC,ResNum=4)                  0   48.57800000   42.09500000   54.95100000 L
 H(PDBName=H5PP,ResName=DC,ResNum=4)                 0   48.09300000   41.18000000   56.38400000 L
 C(PDBName=C4P,ResName=DC,ResNum=4)                  0   46.66100000   41.15100000   54.76900000 L
 H(PDBName=H4P,ResName=DC,ResNum=4)                  0   46.12700000   42.00200000   55.19300000 L
 O(PDBName=O4P,ResName=DC,ResNum=4)                  0   46.66400000   41.25200000   53.34300000 L
 C(PDBName=C1P,ResName=DC,ResNum=4)                  0   45.83000000   40.22700000   52.83000000 L
 H(PDBName=H1P,ResName=DC,ResNum=4)                  0   44.78600000   40.54900000   52.90000000 L
 N(PDBName=N1,ResName=DC,ResNum=4)                   0   46.16500000   39.92400000   51.41200000 L
 C(PDBName=C6,ResName=DC,ResNum=4)                   0   47.25400000   39.15600000   51.08800000 L
 H(PDBName=H6,ResName=DC,ResNum=4)                   0   47.86000000   38.71100000   51.86900000 L
 C(PDBName=C5,ResName=DC,ResNum=4)                   0   47.58600000   38.97200000   49.79100000 L
 H(PDBName=H5,ResName=DC,ResNum=4)                   0   48.45400000   38.38500000   49.55000000 L
 C(PDBName=C4,ResName=DC,ResNum=4)                   0   46.76900000   39.57800000   48.80500000 L
 N(PDBName=N4,ResName=DC,ResNum=4)                   0   47.05100000   39.43100000   47.54100000 L
 H(PDBName=H41,ResName=DC,ResNum=4)                  0   46.53400000   39.98600000   46.87200000 L
 H(PDBName=H42,ResName=DC,ResNum=4)                  0   47.92300000   38.96000000   47.30800000 L
 N(PDBName=N3,ResName=DC,ResNum=4)                   0   45.70300000   40.30000000   49.08100000 L
 C(PDBName=C2,ResName=DC,ResNum=4)                   0   45.38400000   40.48600000   50.38800000 L
 O(PDBName=O2,ResName=DC,ResNum=4)                   0   44.37900000   41.16000000   50.63200000 L
 C(PDBName=C3P,ResName=DC,ResNum=4)                  0   45.89200000   39.86300000   55.11800000 L
 H(PDBName=H3P,ResName=DC,ResNum=4)                  0   46.32200000   39.32600000   55.96600000 L
 C(PDBName=C2P,ResName=DC,ResNum=4)                  0   46.04000000   39.08200000   53.82500000 L
 H(PDBName=H2P,ResName=DC,ResNum=4)                  0   47.04100000   38.66300000   53.76400000 L
 H(PDBName=H2PP,ResName=DC,ResNum=4)                 0   45.28500000   38.30400000   53.74000000 L
 O(PDBName=O3P,ResName=DC,ResNum=4)                  0   44.50300000   40.10000000   55.27300000 L
 P(PDBName=P,ResName=DC,ResNum=5)                    0   43.82200000   40.29200000   56.68900000 L
 O(PDBName=OP1,ResName=DC,ResNum=5)                  0   44.58500000   41.28800000   57.47300000 L
 O(PDBName=OP2,ResName=DC,ResNum=5)                  0   43.52100000   38.96500000   57.27000000 L
 O(PDBName=O5P,ResName=DC,ResNum=5)                  0   42.45600000   40.94600000   56.20900000 L
 C(PDBName=C5P,ResName=DC,ResNum=5)                  0   42.38000000   42.32200000   55.86400000 L
 H(PDBName=H5P,ResName=DC,ResNum=5)                  0   43.29400000   42.62700000   55.35200000 L
 H(PDBName=H5PP,ResName=DC,ResNum=5)                 0   42.29600000   42.90600000   56.77600000 L
 C(PDBName=C4P,ResName=DC,ResNum=5)                  0   41.19300000   42.64500000   54.94700000 L
 H(PDBName=H4P,ResName=DC,ResNum=5)                  0   41.05300000   43.72900000   54.95300000 L
 O(PDBName=O4P,ResName=DC,ResNum=5)                  0   41.48100000   42.21900000   53.61600000 L
 C(PDBName=C1P,ResName=DC,ResNum=5)                  0   40.48600000   41.31300000   53.16500000 L
 H(PDBName=H1P,ResName=DC,ResNum=5)                  0   39.71800000   41.85100000   52.59500000 L
 N(PDBName=N1,ResName=DC,ResNum=5)                   0   41.15200000   40.27000000   52.33300000 L
 C(PDBName=C6,ResName=DC,ResNum=5)                   0   42.10200000   39.44700000   52.89400000 L
 H(PDBName=H6,ResName=DC,ResNum=5)                   0   42.33600000   39.54000000   53.95100000 L
 C(PDBName=C5,ResName=DC,ResNum=5)                   0   42.75900000   38.54600000   52.12500000 L
 H(PDBName=H5,ResName=DC,ResNum=5)                   0   43.50500000   37.89800000   52.55600000 L
 C(PDBName=C4,ResName=DC,ResNum=5)                   0   42.44300000   38.51300000   50.74400000 L
 N(PDBName=N4,ResName=DC,ResNum=5)                   0   43.11500000   37.73000000   49.95700000 L
 H(PDBName=H41,ResName=DC,ResNum=5)                  0   42.93200000   37.76800000   48.96800000 L
 H(PDBName=H42,ResName=DC,ResNum=5)                  0   43.87000000   37.16900000   50.33700000 L
 N(PDBName=N3,ResName=DC,ResNum=5)                   0   41.53000000   39.27800000   50.17800000 L
 C(PDBName=C2,ResName=DC,ResNum=5)                   0   40.86800000   40.16900000   50.95800000 L
 O(PDBName=O2,ResName=DC,ResNum=5)                   0   40.02200000   40.87500000   50.39800000 L
 C(PDBName=C3P,ResName=DC,ResNum=5)                  0   39.87800000   41.98300000   55.37000000 L
 H(PDBName=H3P,ResName=DC,ResNum=5)                  0   39.90200000   41.68900000   56.42200000 L
 C(PDBName=C2P,ResName=DC,ResNum=5)                  0   39.85300000   40.76600000   54.44800000 L
 H(PDBName=H2P,ResName=DC,ResNum=5)                  0   40.45300000   39.97100000   54.88800000 L
 H(PDBName=H2PP,ResName=DC,ResNum=5)                 0   38.84200000   40.40800000   54.27100000 L
 O(PDBName=O3P,ResName=DC,ResNum=5)                  0   38.82500000   42.89600000   55.11800000 L
 P(PDBName=P,ResName=DC,ResNum=6)                    0   37.33300000   42.63200000   55.58800000 L
 O(PDBName=OP1,ResName=DC,ResNum=6)                  0   36.61800000   43.92300000   55.52700000 L
 O(PDBName=OP2,ResName=DC,ResNum=6)                  0   37.31500000   41.87100000   56.84800000 L
 O(PDBName=O5P,ResName=DC,ResNum=6)                  0   36.74900000   41.69000000   54.45400000 L
 C(PDBName=C5P,ResName=DC,ResNum=6)                  0   36.48300000   42.22600000   53.17100000 L
 H(PDBName=H5P,ResName=DC,ResNum=6)                  0   37.31900000   42.84900000   52.85100000 L
 H(PDBName=H5PP,ResName=DC,ResNum=6)                 0   35.59100000   42.85000000   53.21600000 L
 C(PDBName=C4P,ResName=DC,ResNum=6)                  0   36.27400000   41.14400000   52.12100000 L
 H(PDBName=H4P,ResName=DC,ResNum=6)                  0   36.02700000   41.64500000   51.19100000 L
 O(PDBName=O4P,ResName=DC,ResNum=6)                  0   37.43600000   40.36700000   51.91000000 L
 C(PDBName=C1P,ResName=DC,ResNum=6)                  0   37.00800000   39.31000000   51.08000000 L
 H(PDBName=H1P,ResName=DC,ResNum=6)                  0   36.88600000   39.70400000   50.06700000 L
 N(PDBName=N1,ResName=DC,ResNum=6)                   0   37.96800000   38.17800000   51.05600000 L
 C(PDBName=C6,ResName=DC,ResNum=6)                   0   38.68500000   37.83200000   52.17400000 L
 H(PDBName=H6,ResName=DC,ResNum=6)                   0   38.49300000   38.34900000   53.10800000 L
 C(PDBName=C5,ResName=DC,ResNum=6)                   0   39.63800000   36.87000000   52.09300000 L
 H(PDBName=H5,ResName=DC,ResNum=6)                   0   40.21600000   36.60800000   52.96400000 L
 C(PDBName=C4,ResName=DC,ResNum=6)                   0   39.82100000   36.23900000   50.83300000 L
 N(PDBName=N4,ResName=DC,ResNum=6)                   0   40.72900000   35.32500000   50.68100000 L
 H(PDBName=H41,ResName=DC,ResNum=6)                  0   40.83500000   34.94800000   49.74600000 L
 H(PDBName=H42,ResName=DC,ResNum=6)                  0   41.46100000   35.18100000   51.35700000 L
 N(PDBName=N3,ResName=DC,ResNum=6)                   0   39.11100000   36.52900000   49.76100000 L
 C(PDBName=C2,ResName=DC,ResNum=6)                   0   38.16300000   37.48600000   49.85600000 L
 O(PDBName=O2,ResName=DC,ResNum=6)                   0   37.48500000   37.72400000   48.85000000 L
 C(PDBName=C3P,ResName=DC,ResNum=6)                  0   35.17400000   40.12900000   52.43200000 L
 H(PDBName=H3P,ResName=DC,ResNum=6)                  0   35.18600000   39.88600000   53.49200000 L
 C(PDBName=C2P,ResName=DC,ResNum=6)                  0   35.63400000   38.91700000   51.62000000 L
 H(PDBName=H2P,ResName=DC,ResNum=6)                  0   35.70200000   38.04500000   52.27200000 L
 H(PDBName=H2PP,ResName=DC,ResNum=6)                 0   34.96300000   38.72500000   50.78500000 L
 O(PDBName=O3P,ResName=DC,ResNum=6)                  0   33.89300000   40.60700000   52.05200000 L
 P(PDBName=P,ResName=DG,ResNum=7)                    0   32.57600000   39.72300000   52.23700000 L
 O(PDBName=OP1,ResName=DG,ResNum=7)                  0   31.43400000   40.64200000   52.42900000 L
 O(PDBName=OP2,ResName=DG,ResNum=7)                  0   32.81400000   38.66500000   53.24100000 L
 O(PDBName=O5P,ResName=DG,ResNum=7)                  0   32.41300000   39.02800000   50.82300000 L
 C(PDBName=C5P,ResName=DG,ResNum=7)                  0   32.21900000   39.79500000   49.64600000 L
 H(PDBName=H5P,ResName=DG,ResNum=7)                  0   33.10100000   40.40400000   49.45000000 L
 H(PDBName=H5PP,ResName=DG,ResNum=7)                 0   31.36500000   40.46200000   49.77900000 L
 C(PDBName=C4P,ResName=DG,ResNum=7)                  0   31.94700000   38.90400000   48.43100000 L
 H(PDBName=H4P,ResName=DG,ResNum=7)                  0   31.76900000   39.55900000   47.57600000 L
 O(PDBName=O4P,ResName=DG,ResNum=7)                  0   33.06600000   38.06200000   48.15000000 L
 C(PDBName=C1P,ResName=DG,ResNum=7)                  0   32.75900000   36.70300000   48.42500000 L
 H(PDBName=H1P,ResName=DG,ResNum=7)                  0   32.69300000   36.14300000   47.48800000 L
 N(PDBName=N9,ResName=DG,ResNum=7)                   0   33.83400000   36.12500000   49.27600000 L
 C(PDBName=C8,ResName=DG,ResNum=7)                   0   33.98600000   36.23900000   50.63600000 L
 H(PDBName=H8,ResName=DG,ResNum=7)                   0   33.31400000   36.82800000   51.24200000 L
 N(PDBName=N7,ResName=DG,ResNum=7)                   0   35.00900000   35.60100000   51.13300000 L
 C(PDBName=C5,ResName=DG,ResNum=7)                   0   35.60400000   35.02900000   50.00600000 L
 C(PDBName=C6,ResName=DG,ResNum=7)                   0   36.77700000   34.20900000   49.88300000 L
 O(PDBName=O6,ResName=DG,ResNum=7)                   0   37.53100000   33.80300000   50.76800000 L
 N(PDBName=N1,ResName=DG,ResNum=7)                   0   37.05800000   33.85100000   48.58300000 L
 H(PDBName=H1,ResName=DG,ResNum=7)                   0   37.85800000   33.25500000   48.42800000 L
 C(PDBName=C2,ResName=DG,ResNum=7)                   0   36.30500000   34.21600000   47.51900000 L
 N(PDBName=N2,ResName=DG,ResNum=7)                   0   36.66500000   33.72300000   46.36700000 L
 H(PDBName=H21,ResName=DG,ResNum=7)                  0   37.46300000   33.09700000   46.30700000 L
 H(PDBName=H22,ResName=DG,ResNum=7)                  0   36.05200000   33.83300000   45.57400000 L
 N(PDBName=N3,ResName=DG,ResNum=7)                   0   35.21000000   34.98000000   47.57900000 L
 C(PDBName=C4,ResName=DG,ResNum=7)                   0   34.90500000   35.35800000   48.86100000 L
 C(PDBName=C3P,ResName=DG,ResNum=7)                  0   30.72600000   38.00400000   48.64300000 L
 H(PDBName=H3P,ResName=DG,ResNum=7)                  0   30.08900000   38.39700000   49.43600000 L
 C(PDBName=C2P,ResName=DG,ResNum=7)                  0   31.38500000   36.70300000   49.10600000 L
 H(PDBName=H2P,ResName=DG,ResNum=7)                  0   31.48300000   36.73800000   50.18900000 L
 H(PDBName=H2PP,ResName=DG,ResNum=7)                 0   30.80800000   35.82400000   48.83100000 L
 O(PDBName=O3P,ResName=DG,ResNum=7)                  0   29.99300000   37.96100000   47.42600000 L
 P(PDBName=P,ResName=DG,ResNum=8)                    0   28.90900000   36.84700000   47.07700000 L
 O(PDBName=OP1,ResName=DG,ResNum=8)                  0   28.05200000   37.36400000   45.99300000 L
 O(PDBName=OP2,ResName=DG,ResNum=8)                  0   28.29000000   36.33700000   48.31900000 L
 O(PDBName=O5P,ResName=DG,ResNum=8)                  0   29.85700000   35.73600000   46.44100000 L
 C(PDBName=C5P,ResName=DG,ResNum=8)                  0   30.67400000   36.10200000   45.33200000 L
 H(PDBName=H5P,ResName=DG,ResNum=8)                  0   31.46100000   36.78000000   45.66400000 L
 H(PDBName=H5PP,ResName=DG,ResNum=8)                 0   30.06200000   36.64200000   44.61200000 L
 C(PDBName=C4P,ResName=DG,ResNum=8)                  0   31.31300000   34.92900000   44.59000000 L
 H(PDBName=H4P,ResName=DG,ResNum=8)                  0   31.70300000   35.31300000   43.64500000 L
 O(PDBName=O4P,ResName=DG,ResNum=8)                  0   32.40900000   34.40000000   45.31900000 L
 C(PDBName=C1P,ResName=DG,ResNum=8)                  0   32.21300000   33.01600000   45.55800000 L
 H(PDBName=H1P,ResName=DG,ResNum=8)                  0   32.85900000   32.42800000   44.89900000 L
 N(PDBName=N9,ResName=DG,ResNum=8)                   0   32.55100000   32.75500000   46.97800000 L
 C(PDBName=C8,ResName=DG,ResNum=8)                   0   31.90000000   33.22100000   48.09400000 L
 H(PDBName=H8,ResName=DG,ResNum=8)                   0   30.98800000   33.80000000   48.02000000 L
 N(PDBName=N7,ResName=DG,ResNum=8)                   0   32.47500000   32.92700000   49.23000000 L
 C(PDBName=C5,ResName=DG,ResNum=8)                   0   33.57900000   32.15600000   48.82800000 L
 C(PDBName=C6,ResName=DG,ResNum=8)                   0   34.60600000   31.50600000   49.59700000 L
 O(PDBName=O6,ResName=DG,ResNum=8)                   0   34.75400000   31.48200000   50.81800000 L
 N(PDBName=N1,ResName=DG,ResNum=8)                   0   35.53900000   30.83900000   48.82700000 L
 H(PDBName=H1,ResName=DG,ResNum=8)                   0   36.28600000   30.35100000   49.30000000 L
 C(PDBName=C2,ResName=DG,ResNum=8)                   0   35.50500000   30.79400000   47.47500000 L
 N(PDBName=N2,ResName=DG,ResNum=8)                   0   36.45900000   30.11900000   46.89300000 L
 H(PDBName=H21,ResName=DG,ResNum=8)                  0   37.16900000   29.64200000   47.44300000 L
 H(PDBName=H22,ResName=DG,ResNum=8)                  0   36.45500000   30.07600000   45.89000000 L
 N(PDBName=N3,ResName=DG,ResNum=8)                   0   34.57700000   31.37600000   46.71600000 L
 C(PDBName=C4,ResName=DG,ResNum=8)                   0   33.63300000   32.04400000   47.45300000 L
 C(PDBName=C3P,ResName=DG,ResNum=8)                  0   30.30200000   33.82000000   44.28400000 L
 H(PDBName=H3P,ResName=DG,ResNum=8)                  0   29.29200000   34.12800000   44.54200000 L
 C(PDBName=C2P,ResName=DG,ResNum=8)                  0   30.74300000   32.72500000   45.25500000 L
 H(PDBName=H2P,ResName=DG,ResNum=8)                  0   30.14700000   32.80300000   46.16600000 L
 H(PDBName=H2PP,ResName=DG,ResNum=8)                 0   30.63000000   31.73700000   44.82200000 L
 O(PDBName=O3P,ResName=DG,ResNum=8)                  0   30.35000000   33.54300000   42.89000000 L
 P(PDBName=P,ResName=DG,ResNum=9)                    0   29.65200000   32.27600000   42.21600000 L
 O(PDBName=OP1,ResName=DG,ResNum=9)                  0   29.62100000   32.49100000   40.75500000 L
 O(PDBName=OP2,ResName=DG,ResNum=9)                  0   28.38700000   31.95500000   42.90800000 L
 O(PDBName=O5P,ResName=DG,ResNum=9)                  0   30.69200000   31.13300000   42.52100000 L
 C(PDBName=C5P,ResName=DG,ResNum=9)                  0   32.02700000   31.20800000   42.04700000 L
 H(PDBName=H5P,ResName=DG,ResNum=9)                  0   32.51600000   32.10100000   42.43700000 L
 H(PDBName=H5PP,ResName=DG,ResNum=9)                 0   32.02900000   31.25300000   40.95700000 L
 C(PDBName=C4P,ResName=DG,ResNum=9)                  0   32.81700000   29.97600000   42.48600000 L
 H(PDBName=H4P,ResName=DG,ResNum=9)                  0   33.76300000   29.96000000   41.94400000 L
 O(PDBName=O4P,ResName=DG,ResNum=9)                  0   33.08900000   30.00000000   43.88600000 L
 C(PDBName=C1P,ResName=DG,ResNum=9)                  0   32.72600000   28.74500000   44.44200000 L
 H(PDBName=H1P,ResName=DG,ResNum=9)                  0   33.56100000   28.04900000   44.35900000 L
 N(PDBName=N9,ResName=DG,ResNum=9)                   0   32.31300000   28.90200000   45.85800000 L
 C(PDBName=C8,ResName=DG,ResNum=9)                   0   31.16800000   29.48800000   46.34300000 L
 H(PDBName=H8,ResName=DG,ResNum=9)                   0   30.39000000   29.86500000   45.69200000 L
 N(PDBName=N7,ResName=DG,ResNum=9)                   0   31.10700000   29.57500000   47.64300000 L
 C(PDBName=C5,ResName=DG,ResNum=9)                   0   32.27100000   28.91600000   48.05700000 L
 C(PDBName=C6,ResName=DG,ResNum=9)                   0   32.76200000   28.62100000   49.37500000 L
 O(PDBName=O6,ResName=DG,ResNum=9)                   0   32.27700000   28.92600000   50.46400000 L
 N(PDBName=N1,ResName=DG,ResNum=9)                   0   33.93900000   27.90700000   49.37900000 L
 H(PDBName=H1,ResName=DG,ResNum=9)                   0   34.33700000   27.66900000   50.27600000 L
 C(PDBName=C2,ResName=DG,ResNum=9)                   0   34.58500000   27.50900000   48.26000000 L
 N(PDBName=N2,ResName=DG,ResNum=9)                   0   35.68200000   26.82600000   48.44200000 L
 H(PDBName=H21,ResName=DG,ResNum=9)                  0   36.00300000   26.61200000   49.38600000 L
 H(PDBName=H22,ResName=DG,ResNum=9)                  0   36.23800000   26.54800000   47.64800000 L
 N(PDBName=N3,ResName=DG,ResNum=9)                   0   34.18400000   27.77100000   47.01200000 L
 C(PDBName=C4,ResName=DG,ResNum=9)                   0   33.00800000   28.48000000   46.97500000 L
 C(PDBName=C3P,ResName=DG,ResNum=9)                  0   32.03600000   28.69800000   42.17000000 L
 H(PDBName=H3P,ResName=DG,ResNum=9)                  0   31.17900000   28.91000000   41.52800000 L
 C(PDBName=C2P,ResName=DG,ResNum=9)                  0   31.58200000   28.26300000   43.55900000 L
 H(PDBName=H2P,ResName=DG,ResNum=9)                  0   30.66600000   28.79400000   43.80800000 L
 H(PDBName=H2PP,ResName=DG,ResNum=9)                 0   31.43600000   27.18700000   43.62900000 L
 O(PDBName=O3P,ResName=DG,ResNum=9)                  0   32.89600000   27.78900000   41.52200000 L
 P(PDBName=P,ResName=DC,ResNum=10)                   0   32.44300000   26.33500000   41.08200000 L
 O(PDBName=OP1,ResName=DC,ResNum=10)                 0   33.01700000   26.09300000   39.74300000 L
 O(PDBName=OP2,ResName=DC,ResNum=10)                 0   30.98900000   26.14500000   41.30000000 L
 O(PDBName=O5P,ResName=DC,ResNum=10)                 0   33.25200000   25.49600000   42.16000000 L
 C(PDBName=C5P,ResName=DC,ResNum=10)                 0   34.67500000   25.53800000   42.17000000 L
 H(PDBName=H5P,ResName=DC,ResNum=10)                 0   35.00900000   26.55900000   42.35900000 L
 H(PDBName=H5PP,ResName=DC,ResNum=10)                0   35.05600000   25.22000000   41.19600000 L
 C(PDBName=C4P,ResName=DC,ResNum=10)                 0   35.26100000   24.61800000   43.24200000 L
 H(PDBName=H4P,ResName=DC,ResNum=10)                 0   36.34700000   24.60600000   43.13500000 L
 O(PDBName=O4P,ResName=DC,ResNum=10)                 0   34.93300000   25.09200000   44.54700000 L
 C(PDBName=C1P,ResName=DC,ResNum=10)                 0   34.34700000   24.05000000   45.31000000 L
 H(PDBName=H1P,ResName=DC,ResNum=10)                 0   35.12200000   23.57900000   45.92200000 L
 N(PDBName=N1,ResName=DC,ResNum=10)                  0   33.23800000   24.59000000   46.15800000 L
 C(PDBName=C6,ResName=DC,ResNum=10)                  0   32.16700000   25.22000000   45.57600000 L
 H(PDBName=H6,ResName=DC,ResNum=10)                  0   32.13000000   25.30000000   44.49500000 L