%chk=DLCa.chk

%nprocshared=40

%mem=364GB

#p b3lyp/6-31g(d,p) scrf=(solvent=water) geom=connectivity pop=orbitals=10 scf=maxcycles=256  guess=read output=(matrix,i4lab)

DNA-Linker-CNT06

-22 1
 H(PDBName=HO5P,ResName=DG5,ResNum=1_X)              0   88.87100000   31.13200000   53.71700000 L
 O(PDBName=O5P,ResName=DG5,ResNum=1_X)               0   89.24100000   30.39800000   53.18700000 L
 C(PDBName=C5P,ResName=DG5,ResNum=1_X)               0   90.59600000   30.70500000   52.86600000 L
 H(PDBName=H5P,ResName=DG5,ResNum=1_X)               0   90.66800000   31.74100000   52.53000000 L
 H(PDBName=H5PP,ResName=DG5,ResNum=1_X)              0   90.91700000   30.06600000   52.04200000 L
 C(PDBName=C4P,ResName=DG5,ResNum=1_X)               0   91.56800000   30.49700000   54.04300000 L
 H(PDBName=H4P,ResName=DG5,ResNum=1_X)               0   92.57600000   30.75200000   53.71100000 L
 O(PDBName=O4P,ResName=DG5,ResNum=1_X)               0   91.20000000   31.33200000   55.14000000 L
 C(PDBName=C1P,ResName=DG5,ResNum=1_X)               0   91.34400000   30.57700000   56.33200000 L
 H(PDBName=H1P,ResName=DG5,ResNum=1_X)               0   92.39700000   30.53200000   56.62200000 L
 N(PDBName=N9,ResName=DG5,ResNum=1_X)                0   90.53700000   31.13100000   57.44600000 L
 C(PDBName=C8,ResName=DG5,ResNum=1_X)                0   89.54600000   32.08000000   57.39100000 L
 H(PDBName=H8,ResName=DG5,ResNum=1_X)                0   89.22800000   32.52000000   56.45900000 L
 N(PDBName=N7,ResName=DG5,ResNum=1_X)                0   89.06400000   32.43600000   58.55200000 L
 C(PDBName=C5,ResName=DG5,ResNum=1_X)                0   89.78700000   31.64400000   59.45400000 L
 C(PDBName=C6,ResName=DG5,ResNum=1_X)                0   89.75900000   31.57400000   60.89100000 L
 O(PDBName=O6,ResName=DG5,ResNum=1_X)                0   89.07500000   32.22100000   61.68500000 L
 N(PDBName=N1,ResName=DG5,ResNum=1_X)                0   90.63500000   30.64600000   61.41500000 L
 H(PDBName=H1,ResName=DG5,ResNum=1_X)                0   90.65700000   30.53400000   62.41700000 L
 C(PDBName=C2,ResName=DG5,ResNum=1_X)                0   91.45900000   29.88200000   60.66300000 L
 N(PDBName=N2,ResName=DG5,ResNum=1_X)                0   92.19500000   29.00900000   61.29300000 L
 H(PDBName=H21,ResName=DG5,ResNum=1_X)               0   92.12500000   28.90100000   62.30100000 L
 H(PDBName=H22,ResName=DG5,ResNum=1_X)               0   92.76000000   28.37800000   60.73900000 L
 N(PDBName=N3,ResName=DG5,ResNum=1_X)                0   91.55400000   29.93800000   59.33600000 L
 C(PDBName=C4,ResName=DG5,ResNum=1_X)                0   90.68100000   30.83600000   58.78400000 L
 C(PDBName=C3P,ResName=DG5,ResNum=1_X)               0   91.57800000   29.05000000   54.56400000 L
 H(PDBName=H3P,ResName=DG5,ResNum=1_X)               0   90.99200000   28.41200000   53.90000000 L
 C(PDBName=C2P,ResName=DG5,ResNum=1_X)               0   90.87700000   29.19200000   55.91200000 L
 H(PDBName=H2P,ResName=DG5,ResNum=1_X)               0   89.79600000   29.18500000   55.77500000 L
 H(PDBName=H2PP,ResName=DG5,ResNum=1_X)              0   91.19400000   28.42800000   56.62200000 L
 O(PDBName=O3P,ResName=DG5,ResNum=1_X)               0   92.90400000   28.54500000   54.73600000 L
 P(PDBName=P,ResName=DG,ResNum=2_X)                  0   93.18900000   26.97800000   54.55800000 L
 O(PDBName=OP1,ResName=DG,ResNum=2_X)                0   94.64700000   26.73100000   54.68300000 L
 O(PDBName=OP2,ResName=DG,ResNum=2_X)                0   92.49600000   26.51700000   53.33400000 L
 O(PDBName=O5P,ResName=DG,ResNum=2_X)                0   92.42500000   26.32600000   55.79500000 L
 C(PDBName=C5P,ResName=DG,ResNum=2_X)                0   93.01800000   25.35100000   56.63700000 L
 H(PDBName=H5P,ResName=DG,ResNum=2_X)                0   93.82200000   25.80800000   57.21000000 L
 H(PDBName=H5PP,ResName=DG,ResNum=2_X)               0   93.43100000   24.55000000   56.02100000 L
 C(PDBName=C4P,ResName=DG,ResNum=2_X)                0   91.99700000   24.73500000   57.60400000 L
 H(PDBName=H4P,ResName=DG,ResNum=2_X)                0   92.46500000   23.89700000   58.12200000 L
 O(PDBName=O4P,ResName=DG,ResNum=2_X)                0   91.54200000   25.69000000   58.56200000 L
 C(PDBName=C1P,ResName=DG,ResNum=2_X)                0   90.13700000   25.53700000   58.65100000 L
 H(PDBName=H1P,ResName=DG,ResNum=2_X)                0   89.89700000   24.64800000   59.24300000 L
 N(PDBName=N9,ResName=DG,ResNum=2_X)                 0   89.46000000   26.69800000   59.25700000 L
 C(PDBName=C8,ResName=DG,ResNum=2_X)                 0   88.78400000   27.72700000   58.64400000 L
 H(PDBName=H8,ResName=DG,ResNum=2_X)                 0   88.73200000   27.83300000   57.56900000 L
 N(PDBName=N7,ResName=DG,ResNum=2_X)                 0   88.18000000   28.54000000   59.46800000 L
 C(PDBName=C5,ResName=DG,ResNum=2_X)                 0   88.51300000   28.02000000   60.72500000 L
 C(PDBName=C6,ResName=DG,ResNum=2_X)                 0   88.17200000   28.46100000   62.04500000 L
 O(PDBName=O6,ResName=DG,ResNum=2_X)                 0   87.50800000   29.44000000   62.37100000 L
 N(PDBName=N1,ResName=DG,ResNum=2_X)                 0   88.66600000   27.65900000   63.04900000 L
 H(PDBName=H1,ResName=DG,ResNum=2_X)                 0   88.45400000   27.92400000   64.00000000 L
 C(PDBName=C2,ResName=DG,ResNum=2_X)                 0   89.40500000   26.54900000   62.82500000 L
 N(PDBName=N2,ResName=DG,ResNum=2_X)                 0   89.72700000   25.84000000   63.87200000 L
 H(PDBName=H21,ResName=DG,ResNum=2_X)                0   89.45600000   26.15400000   64.80000000 L
 H(PDBName=H22,ResName=DG,ResNum=2_X)                0   90.22400000   24.98400000   63.71200000 L
 N(PDBName=N3,ResName=DG,ResNum=2_X)                 0   89.75500000   26.09000000   61.62400000 L
 C(PDBName=C4,ResName=DG,ResNum=2_X)                 0   89.28400000   26.88500000   60.60700000 L
 C(PDBName=C3P,ResName=DG,ResNum=2_X)                0   90.75000000   24.22400000   56.86700000 L
 H(PDBName=H3P,ResName=DG,ResNum=2_X)                0   90.90600000   24.15700000   55.79200000 L
 C(PDBName=C2P,ResName=DG,ResNum=2_X)                0   89.72900000   25.28900000   57.20500000 L
 H(PDBName=H2P,ResName=DG,ResNum=2_X)                0   89.88700000   26.17600000   56.59000000 L
 H(PDBName=H2PP,ResName=DG,ResNum=2_X)               0   88.71200000   24.90800000   57.13400000 L
 O(PDBName=O3P,ResName=DG,ResNum=2_X)                0   90.26300000   23.01600000   57.41100000 L
 P(PDBName=P,ResName=DG,ResNum=3_X)                  0   90.58400000   21.62500000   56.74100000 L
 O(PDBName=OP1,ResName=DG,ResNum=3_X)                0   92.03500000   21.55700000   56.48500000 L
 O(PDBName=OP2,ResName=DG,ResNum=3_X)                0   89.64700000   21.43000000   55.61100000 L
 O(PDBName=O5P,ResName=DG,ResNum=3_X)                0   90.21600000   20.66200000   57.95800000 L
 C(PDBName=C5P,ResName=DG,ResNum=3_X)                0   91.18300000   20.42300000   58.97500000 L
 H(PDBName=H5P,ResName=DG,ResNum=3_X)                0   91.77700000   21.32500000   59.12500000 L
 H(PDBName=H5PP,ResName=DG,ResNum=3_X)               0   91.85800000   19.63600000   58.63300000 L
 C(PDBName=C4P,ResName=DG,ResNum=3_X)                0   90.62500000   20.03200000   60.35000000 L
 H(PDBName=H4P,ResName=DG,ResNum=3_X)                0   91.47200000   19.68600000   60.93800000 L
 O(PDBName=O4P,ResName=DG,ResNum=3_X)                0   90.03900000   21.14700000   61.02500000 L
 C(PDBName=C1P,ResName=DG,ResNum=3_X)                0   88.64500000   20.92600000   61.19300000 L
 H(PDBName=H1P,ResName=DG,ResNum=3_X)                0   88.43400000   20.66700000   62.23400000 L
 N(PDBName=N9,ResName=DG,ResNum=3_X)                 0   87.93000000   22.17200000   60.81800000 L
 C(PDBName=C8,ResName=DG,ResNum=3_X)                 0   87.77700000   22.72100000   59.56600000 L
 H(PDBName=H8,ResName=DG,ResNum=3_X)                 0   88.16900000   22.24100000   58.67600000 L
 N(PDBName=N7,ResName=DG,ResNum=3_X)                 0   87.14700000   23.86800000   59.55000000 L
 C(PDBName=C5,ResName=DG,ResNum=3_X)                 0   86.88400000   24.11700000   60.90700000 L
 C(PDBName=C6,ResName=DG,ResNum=3_X)                 0   86.25900000   25.23300000   61.57500000 L
 O(PDBName=O6,ResName=DG,ResNum=3_X)                 0   85.81200000   26.28200000   61.11000000 L
 N(PDBName=N1,ResName=DG,ResNum=3_X)                 0   86.17900000   25.08800000   62.94100000 L
 H(PDBName=H1,ResName=DG,ResNum=3_X)                 0   85.73600000   25.82500000   63.47000000 L
 C(PDBName=C2,ResName=DG,ResNum=3_X)                 0   86.66900000   24.02400000   63.61100000 L
 N(PDBName=N2,ResName=DG,ResNum=3_X)                 0   86.52400000   24.04600000   64.90600000 L
 H(PDBName=H21,ResName=DG,ResNum=3_X)                0   86.03100000   24.81400000   65.35600000 L
 H(PDBName=H22,ResName=DG,ResNum=3_X)                0   86.85500000   23.26000000   65.43800000 L
 N(PDBName=N3,ResName=DG,ResNum=3_X)                 0   87.27600000   22.97500000   63.05300000 L
 C(PDBName=C4,ResName=DG,ResNum=3_X)                 0   87.35200000   23.07800000   61.68700000 L
 C(PDBName=C3P,ResName=DG,ResNum=3_X)                0   89.59100000   18.90900000   60.33900000 L
 H(PDBName=H3P,ResName=DG,ResNum=3_X)                0   89.69300000   18.28400000   59.44900000 L
 C(PDBName=C2P,ResName=DG,ResNum=3_X)                0   88.29800000   19.71700000   60.32000000 L
 H(PDBName=H2P,ResName=DG,ResNum=3_X)                0   88.07600000   20.02300000   59.29800000 L
 H(PDBName=H2PP,ResName=DG,ResNum=3_X)               0   87.47200000   19.14400000   60.73500000 L
 O(PDBName=O3P,ResName=DG,ResNum=3_X)                0   89.79500000   18.15000000   61.52400000 L
 P(PDBName=P,ResName=DC,ResNum=4_X)                  0   88.96300000   16.84500000   61.88400000 L
 O(PDBName=OP1,ResName=DC,ResNum=4_X)                0   89.88600000   15.99000000   62.66700000 L
 O(PDBName=OP2,ResName=DC,ResNum=4_X)                0   88.35900000   16.30100000   60.65400000 L
 O(PDBName=O5P,ResName=DC,ResNum=4_X)                0   87.80800000   17.41500000   62.82800000 L
 C(PDBName=C5P,ResName=DC,ResNum=4_X)                0   88.12300000   17.99200000   64.08900000 L
 H(PDBName=H5P,ResName=DC,ResNum=4_X)                0   88.95900000   18.68400000   63.97100000 L
 H(PDBName=H5PP,ResName=DC,ResNum=4_X)               0   88.43100000   17.20600000   64.78000000 L
 C(PDBName=C4P,ResName=DC,ResNum=4_X)                0   86.95900000   18.77600000   64.71000000 L
 H(PDBName=H4P,ResName=DC,ResNum=4_X)                0   87.30100000   19.18900000   65.65900000 L
 O(PDBName=O4P,ResName=DC,ResNum=4_X)                0   86.55900000   19.84700000   63.85500000 L
 C(PDBName=C1P,ResName=DC,ResNum=4_X)                0   85.14500000   19.87900000   63.85500000 L
 H(PDBName=H1P,ResName=DC,ResNum=4_X)                0   84.79700000   20.31600000   64.79500000 L
 N(PDBName=N1,ResName=DC,ResNum=4_X)                 0   84.63500000   20.66100000   62.69900000 L
 C(PDBName=C6,ResName=DC,ResNum=4_X)                 0   84.87600000   20.25400000   61.41100000 L
 H(PDBName=H6,ResName=DC,ResNum=4_X)                 0   85.35400000   19.29700000   61.23700000 L
 C(PDBName=C5,ResName=DC,ResNum=4_X)                 0   84.54500000   21.06200000   60.37500000 L
 H(PDBName=H5,ResName=DC,ResNum=4_X)                 0   84.74800000   20.75500000   59.36300000 L
 C(PDBName=C4,ResName=DC,ResNum=4_X)                 0   83.94400000   22.30900000   60.68500000 L
 N(PDBName=N4,ResName=DC,ResNum=4_X)                 0   83.69000000   23.15900000   59.73900000 L
 H(PDBName=H41,ResName=DC,ResNum=4_X)                0   83.33700000   24.07100000   59.99500000 L
 H(PDBName=H42,ResName=DC,ResNum=4_X)                0   84.01600000   22.96300000   58.80500000 L
 N(PDBName=N3,ResName=DC,ResNum=4_X)                 0   83.68800000   22.71600000   61.91000000 L
 C(PDBName=C2,ResName=DC,ResNum=4_X)                 0   84.00000000   21.88900000   62.93600000 L
 O(PDBName=O2,ResName=DC,ResNum=4_X)                 0   83.70900000   22.26400000   64.07600000 L
 C(PDBName=C3P,ResName=DC,ResNum=4_X)                0   85.69800000   17.94700000   64.98700000 L
 H(PDBName=H3P,ResName=DC,ResNum=4_X)                0   85.90500000   16.87700000   64.94500000 L
 C(PDBName=C2P,ResName=DC,ResNum=4_X)                0   84.77600000   18.40100000   63.86200000 L
 H(PDBName=H2P,ResName=DC,ResNum=4_X)                0   85.05200000   17.91100000   62.92900000 L
 H(PDBName=H2PP,ResName=DC,ResNum=4_X)               0   83.72700000   18.23800000   64.10800000 L
 O(PDBName=O3P,ResName=DC,ResNum=4_X)                0   85.15400000   18.34800000   66.23800000 L
 P(PDBName=P,ResName=DC,ResNum=5_X)                  0   84.23400000   17.39100000   67.10600000 L
 O(PDBName=OP1,ResName=DC,ResNum=5_X)                0   85.07300000   16.82500000   68.18700000 L
 O(PDBName=OP2,ResName=DC,ResNum=5_X)                0   83.54700000   16.45600000   66.18800000 L
 O(PDBName=O5P,ResName=DC,ResNum=5_X)                0   83.15600000   18.37200000   67.74900000 L
 C(PDBName=C5P,ResName=DC,ResNum=5_X)                0   83.52400000   19.23100000   68.81900000 L
 H(PDBName=H5P,ResName=DC,ResNum=5_X)                0   84.44100000   19.75700000   68.54500000 L
 H(PDBName=H5PP,ResName=DC,ResNum=5_X)               0   83.73700000   18.62600000   69.70100000 L
 C(PDBName=C4P,ResName=DC,ResNum=5_X)                0   82.47100000   20.28600000   69.18900000 L
 H(PDBName=H4P,ResName=DC,ResNum=5_X)                0   82.90100000   20.93300000   69.95400000 L
 O(PDBName=O4P,ResName=DC,ResNum=5_X)                0   82.16100000   21.05800000   68.03100000 L
 C(PDBName=C1P,ResName=DC,ResNum=5_X)                0   80.79600000   20.88100000   67.69100000 L
 H(PDBName=H1P,ResName=DC,ResNum=5_X)                0   80.23500000   21.72700000   68.09100000 L
 N(PDBName=N1,ResName=DC,ResNum=5_X)                 0   80.67600000   20.82300000   66.19900000 L
 C(PDBName=C6,ResName=DC,ResNum=5_X)                 0   81.12200000   19.74000000   65.48200000 L
 H(PDBName=H6,ResName=DC,ResNum=5_X)                 0   81.48500000   18.86400000   66.00700000 L
 C(PDBName=C5,ResName=DC,ResNum=5_X)                 0   81.12500000   19.77400000   64.12500000 L
 H(PDBName=H5,ResName=DC,ResNum=5_X)                 0   81.47400000   18.92200000   63.56400000 L
 C(PDBName=C4,ResName=DC,ResNum=5_X)                 0   80.66700000   20.96000000   63.49200000 L
 N(PDBName=N4,ResName=DC,ResNum=5_X)                 0   80.70600000   21.06500000   62.19700000 L
 H(PDBName=H41,ResName=DC,ResNum=5_X)                0   80.43200000   21.93300000   61.76000000 L
 H(PDBName=H42,ResName=DC,ResNum=5_X)                0   80.95000000   20.25600000   61.63700000 L
 N(PDBName=N3,ResName=DC,ResNum=5_X)                 0   80.23000000   22.01200000   64.15500000 L
 C(PDBName=C2,ResName=DC,ResNum=5_X)                 0   80.22200000   21.95700000   65.51000000 L
 O(PDBName=O2,ResName=DC,ResNum=5_X)                 0   79.80400000   22.95200000   66.10800000 L
 C(PDBName=C3P,ResName=DC,ResNum=5_X)                0   81.15500000   19.71400000   69.73200000 L
 H(PDBName=H3P,ResName=DC,ResNum=5_X)                0   81.32600000   18.72300000   70.15400000 L
 C(PDBName=C2P,ResName=DC,ResNum=5_X)                0   80.32400000   19.63900000   68.45500000 L
 H(PDBName=H2P,ResName=DC,ResNum=5_X)                0   80.56100000   18.72000000   67.92000000 L
 H(PDBName=H2PP,ResName=DC,ResNum=5_X)               0   79.26000000   19.68200000   68.67600000 L
 O(PDBName=O3P,ResName=DC,ResNum=5_X)                0   80.62000000   20.60700000   70.71400000 L
 P(PDBName=P,ResName=DC,ResNum=6_X)                  0   79.46200000   20.19100000   71.74200000 L
 O(PDBName=OP1,ResName=DC,ResNum=6_X)                0   79.52200000   21.09400000   72.91700000 L
 O(PDBName=OP2,ResName=DC,ResNum=6_X)                0   79.53600000   18.72900000   71.96800000 L
 O(PDBName=O5P,ResName=DC,ResNum=6_X)                0   78.11500000   20.52700000   70.93100000 L
 C(PDBName=C5P,ResName=DC,ResNum=6_X)                0   77.64300000   21.87300000   70.90100000 L
 H(PDBName=H5P,ResName=DC,ResNum=6_X)                0   78.49500000   22.55100000   70.81600000 L
 H(PDBName=H5PP,ResName=DC,ResNum=6_X)               0   77.14700000   22.08900000   71.84100000 L
 C(PDBName=C4P,ResName=DC,ResNum=6_X)                0   76.65800000   22.22900000   69.78600000 L
 H(PDBName=H4P,ResName=DC,ResNum=6_X)                0   76.30600000   23.24800000   69.95600000 L
 O(PDBName=O4P,ResName=DC,ResNum=6_X)                0   77.28800000   22.17700000   68.51700000 L
 C(PDBName=C1P,ResName=DC,ResNum=6_X)                0   76.26300000   22.11500000   67.53800000 L
 H(PDBName=H1P,ResName=DC,ResNum=6_X)                0   76.09900000   23.11000000   67.11100000 L
 N(PDBName=N1,ResName=DC,ResNum=6_X)                 0   76.63700000   21.15600000   66.46700000 L
 C(PDBName=C6,ResName=DC,ResNum=6_X)                 0   77.12800000   19.91300000   66.77500000 L
 H(PDBName=H6,ResName=DC,ResNum=6_X)                 0   77.18500000   19.60000000   67.81200000 L
 C(PDBName=C5,ResName=DC,ResNum=6_X)                 0   77.55700000   19.09400000   65.78500000 L
 H(PDBName=H5,ResName=DC,ResNum=6_X)                 0   77.96000000   18.12300000   66.02400000 L
 C(PDBName=C4,ResName=DC,ResNum=6_X)                 0   77.45000000   19.56800000   64.45200000 L
 N(PDBName=N4,ResName=DC,ResNum=6_X)                 0   77.92700000   18.85400000   63.47800000 L
 H(PDBName=H41,ResName=DC,ResNum=6_X)                0   77.91800000   19.25900000   62.55300000 L
 H(PDBName=H42,ResName=DC,ResNum=6_X)                0   78.33600000   17.95600000   63.69200000 L
 N(PDBName=N3,ResName=DC,ResNum=6_X)                 0   76.94200000   20.74300000   64.13100000 L
 C(PDBName=C2,ResName=DC,ResNum=6_X)                 0   76.49100000   21.53900000   65.12800000 L
 O(PDBName=O2,ResName=DC,ResNum=6_X)                 0   75.95400000   22.60900000   64.81700000 L
 C(PDBName=C3P,ResName=DC,ResNum=6_X)                0   75.43700000   21.31900000   69.67700000 L
 H(PDBName=H3P,ResName=DC,ResNum=6_X)                0   75.75200000   20.27600000   69.71600000 L
 C(PDBName=C2P,ResName=DC,ResNum=6_X)                0   74.99100000   21.67800000   68.26400000 L
 H(PDBName=H2P,ResName=DC,ResNum=6_X)                0   74.52600000   20.81800000   67.78900000 L
 H(PDBName=H2PP,ResName=DC,ResNum=6_X)               0   74.29400000   22.51500000   68.28700000 L
 O(PDBName=O3P,ResName=DC,ResNum=6_X)                0   74.42400000   21.60200000   70.63900000 L
 P(PDBName=P,ResName=DG,ResNum=7_X)                  0   73.07000000   20.74000000   70.69400000 L
 O(PDBName=OP1,ResName=DG,ResNum=7_X)                0   72.38700000   21.01500000   71.97900000 L
 O(PDBName=OP2,ResName=DG,ResNum=7_X)                0   73.41400000   19.34200000   70.38100000 L
 O(PDBName=O5P,ResName=DG,ResNum=7_X)                0   72.17300000   21.31800000   69.51000000 L
 C(PDBName=C5P,ResName=DG,ResNum=7_X)                0   71.77500000   22.68200000   69.48900000 L
 H(PDBName=H5P,ResName=DG,ResNum=7_X)                0   72.65500000   23.31000000   69.62100000 L
 H(PDBName=H5PP,ResName=DG,ResNum=7_X)               0   71.09400000   22.87600000   70.32100000 L
 C(PDBName=C4P,ResName=DG,ResNum=7_X)                0   71.09800000   23.10500000   68.17600000 L
 H(PDBName=H4P,ResName=DG,ResNum=7_X)                0   70.94000000   24.18400000   68.21900000 L
 O(PDBName=O4P,ResName=DG,ResNum=7_X)                0   71.92500000   22.80900000   67.05000000 L
 C(PDBName=C1P,ResName=DG,ResNum=7_X)                0   71.22100000   21.95500000   66.15700000 L
 H(PDBName=H1P,ResName=DG,ResNum=7_X)                0   70.73800000   22.55300000   65.38100000 L
 N(PDBName=N9,ResName=DG,ResNum=7_X)                 0   72.14700000   20.97500000   65.54200000 L
 C(PDBName=C8,ResName=DG,ResNum=7_X)                 0   72.77900000   19.91300000   66.14200000 L
 H(PDBName=H8,ResName=DG,ResNum=7_X)                 0   72.64600000   19.67500000   67.19200000 L
 N(PDBName=N7,ResName=DG,ResNum=7_X)                 0   73.56600000   19.23800000   65.34900000 L
 C(PDBName=C5,ResName=DG,ResNum=7_X)                 0   73.42000000   19.87900000   64.11400000 L
 C(PDBName=C6,ResName=DG,ResNum=7_X)                 0   73.99000000   19.59900000   62.82200000 L
 O(PDBName=O6,ResName=DG,ResNum=7_X)                 0   74.77700000   18.71500000   62.48900000 L
 N(PDBName=N1,ResName=DG,ResNum=7_X)                 0   73.54700000   20.44300000   61.82800000 L
 H(PDBName=H1,ResName=DG,ResNum=7_X)                 0   73.88800000   20.27600000   60.89300000 L
 C(PDBName=C2,ResName=DG,ResNum=7_X)                 0   72.66400000   21.44700000   62.03000000 L
 N(PDBName=N2,ResName=DG,ResNum=7_X)                 0   72.31400000   22.13900000   60.98300000 L
 H(PDBName=H21,ResName=DG,ResNum=7_X)                0   72.66000000   21.87700000   60.06400000 L
 H(PDBName=H22,ResName=DG,ResNum=7_X)                0   71.59300000   22.82800000   61.08800000 L
 N(PDBName=N3,ResName=DG,ResNum=7_X)                 0   72.13000000   21.76700000   63.20900000 L
 C(PDBName=C4,ResName=DG,ResNum=7_X)                 0   72.54000000   20.93600000   64.22000000 L
 C(PDBName=C3P,ResName=DG,ResNum=7_X)                0   69.74400000   22.42200000   67.94000000 L
 H(PDBName=H3P,ResName=DG,ResNum=7_X)                0   69.33600000   22.03800000   68.87500000 L
 C(PDBName=C2P,ResName=DG,ResNum=7_X)                0   70.14700000   21.28700000   67.01000000 L
 H(PDBName=H2P,ResName=DG,ResNum=7_X)                0   70.57000000   20.47100000   67.59600000 L
 H(PDBName=H2PP,ResName=DG,ResNum=7_X)               0   69.31100000   20.92900000   66.41500000 L
 O(PDBName=O3P,ResName=DG,ResNum=7_X)                0   68.86100000   23.37900000   67.36300000 L
 P(PDBName=P,ResName=DG,ResNum=8_X)                  0   67.38400000   23.04600000   66.84600000 L
 O(PDBName=OP1,ResName=DG,ResNum=8_X)                0   66.63100000   24.31700000   66.89900000 L
 O(PDBName=OP2,ResName=DG,ResNum=8_X)                0   66.85600000   21.87800000   67.58800000 L
 O(PDBName=O5P,ResName=DG,ResNum=8_X)                0   67.59200000   22.62600000   65.31400000 L
 C(PDBName=C5P,ResName=DG,ResNum=8_X)                0   68.05700000   23.57700000   64.36000000 L
 H(PDBName=H5P,ResName=DG,ResNum=8_X)                0   69.13600000   23.69100000   64.45900000 L
 H(PDBName=H5PP,ResName=DG,ResNum=8_X)               0   67.61100000   24.54300000   64.58000000 L
 C(PDBName=C4P,ResName=DG,ResNum=8_X)                0   67.71700000   23.26900000   62.89200000 L
 H(PDBName=H4P,ResName=DG,ResNum=8_X)                0   67.74300000   24.22200000   62.36100000 L
 O(PDBName=O4P,ResName=DG,ResNum=8_X)                0   68.66300000   22.39400000   62.28500000 L
 C(PDBName=C1P,ResName=DG,ResNum=8_X)                0   68.06200000   21.13200000   62.04000000 L
 H(PDBName=H1P,ResName=DG,ResNum=8_X)                0   67.92100000   20.99200000   60.96400000 L
 N(PDBName=N9,ResName=DG,ResNum=8_X)                 0   68.94800000   20.06500000   62.56000000 L
 C(PDBName=C8,ResName=DG,ResNum=8_X)                 0   69.06200000   19.59600000   63.84600000 L
 H(PDBName=H8,ResName=DG,ResNum=8_X)                 0   68.48400000   20.01400000   64.66100000 L
 N(PDBName=N7,ResName=DG,ResNum=8_X)                 0   69.91300000   18.61400000   63.99400000 L
 C(PDBName=C5,ResName=DG,ResNum=8_X)                 0   70.41600000   18.42700000   62.69700000 L
 C(PDBName=C6,ResName=DG,ResNum=8_X)                 0   71.38400000   17.49600000   62.17600000 L
 O(PDBName=O6,ResName=DG,ResNum=8_X)                 0   72.00500000   16.61000000   62.77100000 L
 N(PDBName=N1,ResName=DG,ResNum=8_X)                 0   71.62800000   17.65100000   60.82600000 L
 H(PDBName=H1,ResName=DG,ResNum=8_X)                 0   72.28800000   17.03100000   60.38100000 L
 C(PDBName=C2,ResName=DG,ResNum=8_X)                 0   71.02900000   18.59100000   60.05700000 L
 N(PDBName=N2,ResName=DG,ResNum=8_X)                 0   71.36900000   18.63000000   58.79900000 L
 H(PDBName=H21,ResName=DG,ResNum=8_X)                0   72.02000000   17.95300000   58.41200000 L
 H(PDBName=H22,ResName=DG,ResNum=8_X)                0   70.98700000   19.37400000   58.23200000 L
 N(PDBName=N3,ResName=DG,ResNum=8_X)                 0   70.11500000   19.45900000   60.48300000 L
 C(PDBName=C4,ResName=DG,ResNum=8_X)                 0   69.84900000   19.33000000   61.82000000 L
 C(PDBName=C3P,ResName=DG,ResNum=8_X)                0   66.33000000   22.64800000   62.70300000 L
 H(PDBName=H3P,ResName=DG,ResNum=8_X)                0   65.68500000   22.89900000   63.54500000 L
 C(PDBName=C2P,ResName=DG,ResNum=8_X)                0   66.68600000   21.16300000   62.71100000 L
 H(PDBName=H2P,ResName=DG,ResNum=8_X)                0   66.74000000   20.81900000   63.74200000 L
 H(PDBName=H2PP,ResName=DG,ResNum=8_X)               0   65.96500000   20.55800000   62.16600000 L
 O(PDBName=O3P,ResName=DG,ResNum=8_X)                0   65.74300000   23.10200000   61.49000000 L
 P(PDBName=P,ResName=DG,ResNum=9_X)                  0   64.32700000   22.57400000   60.97500000 L
 O(PDBName=OP1,ResName=DG,ResNum=9_X)                0   63.74600000   23.66600000   60.15800000 L
 O(PDBName=OP2,ResName=DG,ResNum=9_X)                0   63.56300000   22.05400000   62.12500000 L
 O(PDBName=O5P,ResName=DG,ResNum=9_X)                0   64.77900000   21.35800000   60.04700000 L
 C(PDBName=C5P,ResName=DG,ResNum=9_X)                0   65.61300000   21.58500000   58.91800000 L
 H(PDBName=H5P,ResName=DG,ResNum=9_X)                0   66.48400000   22.16700000   59.21800000 L
 H(PDBName=H5PP,ResName=DG,ResNum=9_X)               0   65.06500000   22.15800000   58.17200000 L
 C(PDBName=C4P,ResName=DG,ResNum=9_X)                0   66.13000000   20.30900000   58.25400000 L
 H(PDBName=H4P,ResName=DG,ResNum=9_X)                0   66.69800000   20.62300000   57.38300000 L
 O(PDBName=O4P,ResName=DG,ResNum=9_X)                0   67.03200000   19.58500000   59.07800000 L
 C(PDBName=C1P,ResName=DG,ResNum=9_X)                0   67.00600000   18.25600000   58.59800000 L
 H(PDBName=H1P,ResName=DG,ResNum=9_X)                0   67.50800000   18.17900000   57.62900000 L
 N(PDBName=N9,ResName=DG,ResNum=9_X)                 0   67.62500000   17.32300000   59.56100000 L
 C(PDBName=C8,ResName=DG,ResNum=9_X)                 0   67.42000000   17.24300000   60.91600000 L
 H(PDBName=H8,ResName=DG,ResNum=9_X)                 0   66.73400000   17.90500000   61.43200000 L
 N(PDBName=N7,ResName=DG,ResNum=9_X)                 0   68.14100000   16.32900000   61.51300000 L
 C(PDBName=C5,ResName=DG,ResNum=9_X)                 0   68.84400000   15.72400000   60.45800000 L
 C(PDBName=C6,ResName=DG,ResNum=9_X)                 0   69.78500000   14.63200000   60.43100000 L
 O(PDBName=O6,ResName=DG,ResNum=9_X)                 0   70.24900000   13.97100000   61.35900000 L
 N(PDBName=N1,ResName=DG,ResNum=9_X)                 0   70.21400000   14.30300000   59.16600000 L
 H(PDBName=H1,ResName=DG,ResNum=9_X)                 0   70.81900000   13.50100000   59.08300000 L
 C(PDBName=C2,ResName=DG,ResNum=9_X)                 0   69.81600000   14.94700000   58.04800000 L
 N(PDBName=N2,ResName=DG,ResNum=9_X)                 0   70.23200000   14.46900000   56.90900000 L
 H(PDBName=H21,ResName=DG,ResNum=9_X)                0   70.78900000   13.62100000   56.90200000 L
 H(PDBName=H22,ResName=DG,ResNum=9_X)                0   69.84700000   14.86000000   56.06700000 L
 N(PDBName=N3,ResName=DG,ResNum=9_X)                 0   69.00000000   15.99800000   58.01300000 L
 C(PDBName=C4,ResName=DG,ResNum=9_X)                 0   68.52800000   16.32900000   59.25800000 L
 C(PDBName=C3P,ResName=DG,ResNum=9_X)                0   65.04600000   19.32600000   57.78000000 L
 H(PDBName=H3P,ResName=DG,ResNum=9_X)                0   64.06300000   19.60600000   58.16900000 L
 C(PDBName=C2P,ResName=DG,ResNum=9_X)                0   65.51400000   18.01900000   58.42300000 L
 H(PDBName=H2P,ResName=DG,ResNum=9_X)                0   65.04100000   17.89600000   59.39500000 L
 H(PDBName=H2PP,ResName=DG,ResNum=9_X)               0   65.31600000   17.15700000   57.79400000 L
 O(PDBName=O3P,ResName=DG,ResNum=9_X)                0   65.03200000   19.26500000   56.35500000 L
 P(PDBName=P,ResName=DC,ResNum=10_X)                 0   64.01400000   18.31700000   55.55300000 L
 O(PDBName=OP1,ResName=DC,ResNum=10_X)               0   63.63500000   19.01300000   54.30500000 L
 O(PDBName=OP2,ResName=DC,ResNum=10_X)               0   62.93900000   17.85900000   56.45700000 L
 O(PDBName=O5P,ResName=DC,ResNum=10_X)               0   64.91400000   17.05400000   55.17200000 L
 C(PDBName=C5P,ResName=DC,ResNum=10_X)               0   66.00300000   17.18400000   54.26400000 L
 H(PDBName=H5P,ResName=DC,ResNum=10_X)               0   66.80100000   17.75800000   54.73600000 L
 H(PDBName=H5PP,ResName=DC,ResNum=10_X)              0   65.67100000   17.73000000   53.38200000 L
 C(PDBName=C4P,ResName=DC,ResNum=10_X)               0   66.57900000   15.84500000   53.78200000 L
 H(PDBName=H4P,ResName=DC,ResNum=10_X)               0   67.30800000   16.06900000   53.00200000 L
 O(PDBName=O4P,ResName=DC,ResNum=10_X)               0   67.24700000   15.17200000   54.84300000 L
 C(PDBName=C1P,ResName=DC,ResNum=10_X)               0   66.63300000   13.91400000   55.06600000 L
 H(PDBName=H1P,ResName=DC,ResNum=10_X)               0   67.20400000   13.13900000   54.54300000 L
 N(PDBName=N1,ResName=DC,ResNum=10_X)                0   66.60600000   13.65800000   56.53200000 L
 C(PDBName=C6,ResName=DC,ResNum=10_X)                0   65.82300000   14.41100000   57.37500000 L
 H(PDBName=H6,ResName=DC,ResNum=10_X)                0   65.18400000   15.18100000   56.95600000 L