%nprocshared=20
%mem=170GB
%chk=DEC.chk
#p b3lyp/6-31g(d,p) scrf=(solvent=water) geom=connectivity guess=read output=(matrix,i4lab)

DNA-Ester-CNT

-22 1
 H(PDBName=HO5P,ResName=DG5,ResNum=1)                0   72.96800000   10.42800000   43.72000000 L
 O(PDBName=O5P,ResName=DG5,ResNum=1)                 0   72.75000000   11.36700000   43.54200000 L
 C(PDBName=C5P,ResName=DG5,ResNum=1)                 0   71.36400000   11.58600000   43.78200000 L
 H(PDBName=H5P,ResName=DG5,ResNum=1)                 0   70.78500000   11.11200000   42.98900000 L
 H(PDBName=H5PP,ResName=DG5,ResNum=1)                0   71.15900000   12.65800000   43.75100000 L
 C(PDBName=C4P,ResName=DG5,ResNum=1)                 0   70.87600000   11.04000000   45.13600000 L
 H(PDBName=H4P,ResName=DG5,ResNum=1)                 0   69.83600000   11.34000000   45.27200000 L
 O(PDBName=O4P,ResName=DG5,ResNum=1)                 0   70.96300000    9.62000000   45.12800000 L
 C(PDBName=C1P,ResName=DG5,ResNum=1)                 0   71.81100000    9.18900000   46.17900000 L
 H(PDBName=H1P,ResName=DG5,ResNum=1)                 0   71.19000000    8.93400000   47.03900000 L
 N(PDBName=N9,ResName=DG5,ResNum=1)                  0   72.56300000    7.97600000   45.76600000 L
 C(PDBName=C8,ResName=DG5,ResNum=1)                  0   72.30500000    6.68700000   46.16600000 L
 H(PDBName=H8,ResName=DG5,ResNum=1)                  0   71.53900000    6.44300000   46.89200000 L
 N(PDBName=N7,ResName=DG5,ResNum=1)                  0   73.06000000    5.78600000   45.60400000 L
 C(PDBName=C5,ResName=DG5,ResNum=1)                  0   73.86600000    6.52300000   44.72800000 L
 C(PDBName=C6,ResName=DG5,ResNum=1)                  0   74.90100000    6.09900000   43.81900000 L
 O(PDBName=O6,ResName=DG5,ResNum=1)                  0   75.33200000    4.95900000   43.60900000 L
 N(PDBName=N1,ResName=DG5,ResNum=1)                  0   75.47400000    7.14500000   43.12500000 L
 H(PDBName=H1,ResName=DG5,ResNum=1)                  0   76.20900000    6.93100000   42.46600000 L
 C(PDBName=C2,ResName=DG5,ResNum=1)                  0   75.12400000    8.44300000   43.29200000 L
 N(PDBName=N2,ResName=DG5,ResNum=1)                  0   75.85100000    9.32100000   42.65500000 L
 H(PDBName=H21,ResName=DG5,ResNum=1)                 0   76.59200000    8.99800000   42.04800000 L
 H(PDBName=H22,ResName=DG5,ResNum=1)                 0   75.71400000   10.29800000   42.86300000 L
 N(PDBName=N3,ResName=DG5,ResNum=1)                  0   74.16400000    8.88200000   44.10800000 L
 C(PDBName=C4,ResName=DG5,ResNum=1)                  0   73.56400000    7.86900000   44.81300000 L
 C(PDBName=C3P,ResName=DG5,ResNum=1)                 0   71.69900000   11.54600000   46.33000000 L
 H(PDBName=H3P,ResName=DG5,ResNum=1)                 0   72.24700000   12.45400000   46.06500000 L
 C(PDBName=C2P,ResName=DG5,ResNum=1)                 0   72.66700000   10.39300000   46.57000000 L
 H(PDBName=H2P,ResName=DG5,ResNum=1)                 0   73.53800000   10.48500000   45.92700000 L
 H(PDBName=H2PP,ResName=DG5,ResNum=1)                0   72.97500000   10.34500000   47.61400000 L
 O(PDBName=O3P,ResName=DG5,ResNum=1)                 0   70.90700000   11.74500000   47.49600000 L
 P(PDBName=P,ResName=DG,ResNum=2)                    0   70.74000000   13.20600000   48.12000000 L
 O(PDBName=OP1,ResName=DG,ResNum=2)                  0   70.13600000   13.07400000   49.46300000 L
 O(PDBName=OP2,ResName=DG,ResNum=2)                  0   70.06900000   14.07600000   47.13000000 L
 O(PDBName=O5P,ResName=DG,ResNum=2)                  0   72.23800000   13.71100000   48.26700000 L
 C(PDBName=C5P,ResName=DG,ResNum=2)                  0   73.12600000   13.18400000   49.24100000 L
 H(PDBName=H5P,ResName=DG,ResNum=2)                  0   73.06500000   12.09500000   49.25700000 L
 H(PDBName=H5PP,ResName=DG,ResNum=2)                 0   72.84800000   13.56400000   50.22400000 L
 C(PDBName=C4P,ResName=DG,ResNum=2)                  0   74.57400000   13.58900000   48.93100000 L
 H(PDBName=H4P,ResName=DG,ResNum=2)                  0   75.18900000   13.34700000   49.79900000 L
 O(PDBName=O4P,ResName=DG,ResNum=2)                  0   75.07800000   12.88000000   47.80100000 L
 C(PDBName=C1P,ResName=DG,ResNum=2)                  0   75.95300000   13.75000000   47.10800000 L
 H(PDBName=H1P,ResName=DG,ResNum=2)                  0   76.90800000   13.81600000   47.63500000 L
 N(PDBName=N9,ResName=DG,ResNum=2)                   0   76.18500000   13.32900000   45.70600000 L
 C(PDBName=C8,ResName=DG,ResNum=2)                   0   75.32900000   12.66600000   44.86400000 L
 H(PDBName=H8,ResName=DG,ResNum=2)                   0   74.34100000   12.36900000   45.18400000 L
 N(PDBName=N7,ResName=DG,ResNum=2)                   0   75.80600000   12.42600000   43.66900000 L
 C(PDBName=C5,ResName=DG,ResNum=2)                   0   77.09700000   12.98000000   43.72900000 L
 C(PDBName=C6,ResName=DG,ResNum=2)                   0   78.16200000   13.03400000   42.76000000 L
 O(PDBName=O6,ResName=DG,ResNum=2)                   0   78.20800000   12.56700000   41.62300000 L
 N(PDBName=N1,ResName=DG,ResNum=2)                   0   79.27800000   13.71200000   43.20200000 L
 H(PDBName=H1,ResName=DG,ResNum=2)                   0   80.06300000   13.77300000   42.57000000 L
 C(PDBName=C2,ResName=DG,ResNum=2)                   0   79.38900000   14.26000000   44.43200000 L
 N(PDBName=N2,ResName=DG,ResNum=2)                   0   80.50200000   14.88900000   44.68900000 L
 H(PDBName=H21,ResName=DG,ResNum=2)                  0   81.23700000   14.92100000   43.98700000 L
 H(PDBName=H22,ResName=DG,ResNum=2)                  0   80.63200000   15.31900000   45.58400000 L
 N(PDBName=N3,ResName=DG,ResNum=2)                   0   78.44900000   14.22400000   45.37700000 L
 C(PDBName=C4,ResName=DG,ResNum=2)                   0   77.32100000   13.56100000   44.96300000 L
 C(PDBName=C3P,ResName=DG,ResNum=2)                  0   74.72600000   15.09000000   48.62800000 L
 H(PDBName=H3P,ResName=DG,ResNum=2)                  0   73.76000000   15.59300000   48.70300000 L
 C(PDBName=C2P,ResName=DG,ResNum=2)                  0   75.22000000   15.08100000   47.18700000 L
 H(PDBName=H2P,ResName=DG,ResNum=2)                  0   74.37100000   15.08600000   46.50200000 L
 H(PDBName=H2PP,ResName=DG,ResNum=2)                 0   75.89100000   15.91200000   46.99300000 L
 O(PDBName=O3P,ResName=DG,ResNum=2)                  0   75.68300000   15.68900000   49.49100000 L
 P(PDBName=P,ResName=DG,ResNum=3)                    0   75.64100000   17.25000000   49.84200000 L
 O(PDBName=OP1,ResName=DG,ResNum=3)                  0   75.85700000   17.34500000   51.30200000 L
 O(PDBName=OP2,ResName=DG,ResNum=3)                  0   74.43400000   17.87000000   49.25600000 L
 O(PDBName=O5P,ResName=DG,ResNum=3)                  0   76.88100000   17.87100000   49.06700000 L
 C(PDBName=C5P,ResName=DG,ResNum=3)                  0   78.14300000   18.04400000   49.69500000 L
 H(PDBName=H5P,ResName=DG,ResNum=3)                  0   78.56200000   17.07800000   49.97600000 L
 H(PDBName=H5PP,ResName=DG,ResNum=3)                 0   78.00600000   18.63900000   50.59700000 L
 C(PDBName=C4P,ResName=DG,ResNum=3)                  0   79.14400000   18.79000000   48.80900000 L
 H(PDBName=H4P,ResName=DG,ResNum=3)                  0   80.10100000   18.83400000   49.33100000 L
 O(PDBName=O4P,ResName=DG,ResNum=3)                  0   79.30200000   18.10100000   47.56900000 L
 C(PDBName=C1P,ResName=DG,ResNum=3)                  0   78.97200000   18.97600000   46.50100000 L
 H(PDBName=H1P,ResName=DG,ResNum=3)                  0   79.88200000   19.43000000   46.09700000 L
 N(PDBName=N9,ResName=DG,ResNum=3)                   0   78.26900000   18.22200000   45.43800000 L
 C(PDBName=C8,ResName=DG,ResNum=3)                   0   76.98500000   17.73500000   45.44300000 L
 H(PDBName=H8,ResName=DG,ResNum=3)                   0   76.32400000   17.86800000   46.29100000 L
 N(PDBName=N7,ResName=DG,ResNum=3)                   0   76.64300000   17.09400000   44.35700000 L
 C(PDBName=C5,ResName=DG,ResNum=3)                   0   77.79100000   17.18400000   43.55300000 L
 C(PDBName=C6,ResName=DG,ResNum=3)                   0   78.07300000   16.70000000   42.22600000 L
 O(PDBName=O6,ResName=DG,ResNum=3)                   0   77.36700000   16.02900000   41.47100000 L
 N(PDBName=N1,ResName=DG,ResNum=3)                   0   79.32800000   17.04300000   41.77200000 L
 H(PDBName=H1,ResName=DG,ResNum=3)                   0   79.56500000   16.79900000   40.82300000 L
 C(PDBName=C2,ResName=DG,ResNum=3)                   0   80.23900000   17.71500000   42.51200000 L
 N(PDBName=N2,ResName=DG,ResNum=3)                   0   81.39100000   17.95700000   41.95500000 L
 H(PDBName=H21,ResName=DG,ResNum=3)                  0   81.55000000   17.73400000   40.97700000 L
 H(PDBName=H22,ResName=DG,ResNum=3)                  0   82.09900000   18.38800000   42.52000000 L
 N(PDBName=N3,ResName=DG,ResNum=3)                   0   80.04100000   18.15800000   43.74800000 L
 C(PDBName=C4,ResName=DG,ResNum=3)                   0   78.78800000   17.87200000   44.21300000 L
 C(PDBName=C3P,ResName=DG,ResNum=3)                  0   78.68600000   20.22400000   48.50900000 L
 H(PDBName=H3P,ResName=DG,ResNum=3)                  0   77.92300000   20.55100000   49.21800000 L
 C(PDBName=C2P,ResName=DG,ResNum=3)                  0   78.08900000   20.05900000   47.11600000 L
 H(PDBName=H2P,ResName=DG,ResNum=3)                  0   77.06100000   19.71300000   47.21300000 L
 H(PDBName=H2PP,ResName=DG,ResNum=3)                 0   78.11600000   20.97900000   46.53700000 L
 O(PDBName=O3P,ResName=DG,ResNum=3)                  0   79.81100000   21.08800000   48.58600000 L
 P(PDBName=P,ResName=DC,ResNum=4)                    0   79.77600000   22.60900000   48.12300000 L
 O(PDBName=OP1,ResName=DC,ResNum=4)                  0   80.84400000   23.31600000   48.85300000 L
 O(PDBName=OP2,ResName=DC,ResNum=4)                  0   78.38900000   23.11600000   48.23600000 L
 O(PDBName=O5P,ResName=DC,ResNum=4)                  0   80.19600000   22.49900000   46.58900000 L
 C(PDBName=C5P,ResName=DC,ResNum=4)                  0   81.46500000   21.94200000   46.26500000 L
 H(PDBName=H5P,ResName=DC,ResNum=4)                  0   81.48200000   20.88500000   46.53500000 L
 H(PDBName=H5PP,ResName=DC,ResNum=4)                 0   82.23000000   22.44100000   46.86200000 L
 C(PDBName=C4P,ResName=DC,ResNum=4)                  0   81.87500000   22.07700000   44.79700000 L
 H(PDBName=H4P,ResName=DC,ResNum=4)                  0   82.91900000   21.76600000   44.74700000 L
 O(PDBName=O4P,ResName=DC,ResNum=4)                  0   81.11400000   21.25100000   43.91600000 L
 C(PDBName=C1P,ResName=DC,ResNum=4)                  0   80.54700000   22.04500000   42.88000000 L
 H(PDBName=H1P,ResName=DC,ResNum=4)                  0   81.22200000   22.08700000   42.01900000 L
 N(PDBName=N1,ResName=DC,ResNum=4)                   0   79.23600000   21.44500000   42.48200000 L
 C(PDBName=C6,ResName=DC,ResNum=4)                   0   78.20600000   21.33500000   43.38400000 L
 H(PDBName=H6,ResName=DC,ResNum=4)                   0   78.32300000   21.77300000   44.36900000 L
 C(PDBName=C5,ResName=DC,ResNum=4)                   0   77.07800000   20.65500000   43.04900000 L
 H(PDBName=H5,ResName=DC,ResNum=4)                   0   76.27200000   20.55400000   43.75700000 L
 C(PDBName=C4,ResName=DC,ResNum=4)                   0   77.01800000   20.07800000   41.75000000 L
 N(PDBName=N4,ResName=DC,ResNum=4)                   0   76.00100000   19.35000000   41.39300000 L
 H(PDBName=H41,ResName=DC,ResNum=4)                  0   76.00300000   18.91700000   40.48100000 L
 H(PDBName=H42,ResName=DC,ResNum=4)                  0   75.24400000   19.19200000   42.04400000 L
 N(PDBName=N3,ResName=DC,ResNum=4)                   0   77.99100000   20.17000000   40.86900000 L
 C(PDBName=C2,ResName=DC,ResNum=4)                   0   79.10700000   20.85400000   41.21600000 L
 O(PDBName=O2,ResName=DC,ResNum=4)                   0   80.00300000   20.92000000   40.37500000 L
 C(PDBName=C3P,ResName=DC,ResNum=4)                  0   81.77800000   23.50900000   44.27300000 L
 H(PDBName=H3P,ResName=DC,ResNum=4)                  0   81.71500000   24.22400000   45.09600000 L
 C(PDBName=C2P,ResName=DC,ResNum=4)                  0   80.48000000   23.45500000   43.46800000 L
 H(PDBName=H2P,ResName=DC,ResNum=4)                  0   79.62700000   23.56500000   44.13800000 L
 H(PDBName=H2PP,ResName=DC,ResNum=4)                 0   80.46200000   24.21500000   42.68800000 L
 O(PDBName=O3P,ResName=DC,ResNum=4)                  0   82.93500000   23.72300000   43.47900000 L
 P(PDBName=P,ResName=DC,ResNum=5)                    0   83.42300000   25.16600000   43.03500000 L
 O(PDBName=OP1,ResName=DC,ResNum=5)                  0   84.85300000   25.01900000   42.67200000 L
 O(PDBName=OP2,ResName=DC,ResNum=5)                  0   83.02800000   26.15200000   44.07000000 L
 O(PDBName=O5P,ResName=DC,ResNum=5)                  0   82.57400000   25.40800000   41.71400000 L
 C(PDBName=C5P,ResName=DC,ResNum=5)                  0   82.88400000   24.68800000   40.52800000 L
 H(PDBName=H5P,ResName=DC,ResNum=5)                  0   83.05400000   23.63700000   40.76800000 L
 H(PDBName=H5PP,ResName=DC,ResNum=5)                 0   83.80300000   25.09100000   40.10200000 L
 C(PDBName=C4P,ResName=DC,ResNum=5)                  0   81.78200000   24.74900000   39.46800000 L
 H(PDBName=H4P,ResName=DC,ResNum=5)                  0   82.17700000   24.30400000   38.55300000 L
 O(PDBName=O4P,ResName=DC,ResNum=5)                  0   80.62800000   24.01200000   39.86200000 L
 C(PDBName=C1P,ResName=DC,ResNum=5)                  0   79.52300000   24.72100000   39.34000000 L
 H(PDBName=H1P,ResName=DC,ResNum=5)                  0   79.53300000   24.64500000   38.24800000 L
 N(PDBName=N1,ResName=DC,ResNum=5)                   0   78.22600000   24.20300000   39.85000000 L
 C(PDBName=C6,ResName=DC,ResNum=5)                   0   77.81500000   24.42700000   41.13900000 L
 H(PDBName=H6,ResName=DC,ResNum=5)                   0   78.44000000   25.01000000   41.80200000 L
 C(PDBName=C5,ResName=DC,ResNum=5)                   0   76.64100000   23.90900000   41.57600000 L
 H(PDBName=H5,ResName=DC,ResNum=5)                   0   76.31700000   24.07700000   42.59000000 L
 C(PDBName=C4,ResName=DC,ResNum=5)                   0   75.88500000   23.13000000   40.66000000 L
 N(PDBName=N4,ResName=DC,ResNum=5)                   0   74.78500000   22.55700000   41.05000000 L
 H(PDBName=H41,ResName=DC,ResNum=5)                  0   74.33300000   21.90700000   40.42500000 L
 H(PDBName=H42,ResName=DC,ResNum=5)                  0   74.44200000   22.69600000   41.99200000 L
 N(PDBName=N3,ResName=DC,ResNum=5)                   0   76.26300000   22.89500000   39.42000000 L
 C(PDBName=C2,ResName=DC,ResNum=5)                   0   77.42400000   23.44400000   38.98400000 L
 O(PDBName=O2,ResName=DC,ResNum=5)                   0   77.73900000   23.25800000   37.80300000 L
 C(PDBName=C3P,ResName=DC,ResNum=5)                  0   81.30100000   26.17200000   39.13600000 L
 H(PDBName=H3P,ResName=DC,ResNum=5)                  0   81.93200000   26.93900000   39.59100000 L
 C(PDBName=C2P,ResName=DC,ResNum=5)                  0   79.88900000   26.15700000   39.71300000 L
 H(PDBName=H2P,ResName=DC,ResNum=5)                  0   79.92300000   26.29600000   40.79300000 L
 H(PDBName=H2PP,ResName=DC,ResNum=5)                 0   79.24700000   26.89100000   39.22700000 L
 O(PDBName=O3P,ResName=DC,ResNum=5)                  0   81.18700000   26.30800000   37.73000000 L
 P(PDBName=P,ResName=DC,ResNum=6)                    0   81.57500000   27.63800000   36.97200000 L
 O(PDBName=OP1,ResName=DC,ResNum=6)                  0   83.04800000   27.71500000   36.87100000 L
 O(PDBName=OP2,ResName=DC,ResNum=6)                  0   80.83400000   28.77200000   37.56600000 L
 O(PDBName=O5P,ResName=DC,ResNum=6)                  0   81.01100000   27.35300000   35.51800000 L
 C(PDBName=C5P,ResName=DC,ResNum=6)                  0   81.52900000   26.29200000   34.72700000 L
 H(PDBName=H5P,ResName=DC,ResNum=6)                  0   81.62400000   25.39100000   35.33500000 L
 H(PDBName=H5PP,ResName=DC,ResNum=6)                 0   82.52200000   26.55800000   34.36600000 L
 C(PDBName=C4P,ResName=DC,ResNum=6)                  0   80.63200000   25.95500000   33.53000000 L
 H(PDBName=H4P,ResName=DC,ResNum=6)                  0   81.17300000   25.24600000   32.90400000 L
 O(PDBName=O4P,ResName=DC,ResNum=6)                  0   79.42100000   25.35400000   33.98000000 L
 C(PDBName=C1P,ResName=DC,ResNum=6)                  0   78.31700000   26.19700000   33.68200000 L
 H(PDBName=H1P,ResName=DC,ResNum=6)                  0   77.77300000   25.79200000   32.82300000 L
 N(PDBName=N1,ResName=DC,ResNum=6)                   0   77.42700000   26.23100000   34.88100000 L
 C(PDBName=C6,ResName=DC,ResNum=6)                   0   77.76200000   26.93500000   36.01400000 L
 H(PDBName=H6,ResName=DC,ResNum=6)                   0   78.64800000   27.55600000   36.02500000 L
 C(PDBName=C5,ResName=DC,ResNum=6)                   0   76.99300000   26.84000000   37.12600000 L
 H(PDBName=H5,ResName=DC,ResNum=6)                   0   77.25600000   27.38700000   38.01200000 L
 C(PDBName=C4,ResName=DC,ResNum=6)                   0   75.85100000   26.00400000   37.06900000 L
 N(PDBName=N4,ResName=DC,ResNum=6)                   0   75.07200000   25.88800000   38.10000000 L
 H(PDBName=H41,ResName=DC,ResNum=6)                  0   74.28400000   25.25700000   38.02300000 L
 H(PDBName=H42,ResName=DC,ResNum=6)                  0   75.19500000   26.50700000   38.89000000 L
 N(PDBName=N3,ResName=DC,ResNum=6)                   0   75.52000000   25.30600000   36.00400000 L
 C(PDBName=C2,ResName=DC,ResNum=6)                   0   76.30000000   25.39700000   34.90300000 L
 O(PDBName=O2,ResName=DC,ResNum=6)                   0   75.98800000   24.70200000   33.93600000 L
 C(PDBName=C3P,ResName=DC,ResNum=6)                  0   80.25400000   27.16800000   32.67500000 L
 H(PDBName=H3P,ResName=DC,ResNum=6)                  0   80.98300000   27.96900000   32.81700000 L
 C(PDBName=C2P,ResName=DC,ResNum=6)                  0   78.89200000   27.54700000   33.24500000 L
 H(PDBName=H2P,ResName=DC,ResNum=6)                  0   79.02600000   28.22600000   34.08500000 L
 H(PDBName=H2PP,ResName=DC,ResNum=6)                 0   78.26700000   28.01200000   32.48500000 L
 O(PDBName=O3P,ResName=DC,ResNum=6)                  0   80.18100000   26.78600000   31.31000000 L
 P(PDBName=P,ResName=DG,ResNum=7)                    0   80.14000000   27.86000000   30.12500000 L
 O(PDBName=OP1,ResName=DG,ResNum=7)                  0   80.80200000   27.25300000   28.95000000 L
 O(PDBName=OP2,ResName=DG,ResNum=7)                  0   80.62200000   29.16200000   30.62400000 L
 O(PDBName=O5P,ResName=DG,ResNum=7)                  0   78.59600000   28.03600000   29.81800000 L
 C(PDBName=C5P,ResName=DG,ResNum=7)                  0   77.82900000   26.98700000   29.23900000 L
 H(PDBName=H5P,ResName=DG,ResNum=7)                  0   78.07400000   26.03600000   29.71100000 L
 H(PDBName=H5PP,ResName=DG,ResNum=7)                 0   78.06100000   26.91300000   28.17600000 L
 C(PDBName=C4P,ResName=DG,ResNum=7)                  0   76.32700000   27.22900000   29.42500000 L
 H(PDBName=H4P,ResName=DG,ResNum=7)                  0   75.76500000   26.48600000   28.85500000 L
 O(PDBName=O4P,ResName=DG,ResNum=7)                  0   75.99500000   27.13300000   30.80900000 L
 C(PDBName=C1P,ResName=DG,ResNum=7)                  0   75.18300000   28.24800000   31.12700000 L
 H(PDBName=H1P,ResName=DG,ResNum=7)                  0   74.15500000   28.05900000   30.79700000 L
 N(PDBName=N9,ResName=DG,ResNum=7)                   0   75.19400000   28.55100000   32.57400000 L
 C(PDBName=C8,ResName=DG,ResNum=7)                   0   76.03300000   29.37900000   33.27900000 L
 H(PDBName=H8,ResName=DG,ResNum=7)                   0   76.86500000   29.90000000   32.82200000 L
 N(PDBName=N7,ResName=DG,ResNum=7)                   0   75.74700000   29.47900000   34.54800000 L
 C(PDBName=C5,ResName=DG,ResNum=7)                   0   74.61800000   28.66400000   34.69700000 L
 C(PDBName=C6,ResName=DG,ResNum=7)                   0   73.79400000   28.37900000   35.84000000 L
 O(PDBName=O6,ResName=DG,ResNum=7)                   0   73.87000000   28.82600000   36.98600000 L
 N(PDBName=N1,ResName=DG,ResNum=7)                   0   72.78000000   27.48500000   35.57000000 L
 H(PDBName=H1,ResName=DG,ResNum=7)                   0   72.17100000   27.23000000   36.33400000 L
 C(PDBName=C2,ResName=DG,ResNum=7)                   0   72.53000000   26.97400000   34.34200000 L
 N(PDBName=N2,ResName=DG,ResNum=7)                   0   71.47400000   26.22400000   34.22100000 L
 H(PDBName=H21,ResName=DG,ResNum=7)                  0   70.91100000   26.01200000   35.03800000 L
 H(PDBName=H22,ResName=DG,ResNum=7)                  0   71.15700000   25.98000000   33.29500000 L
 N(PDBName=N3,ResName=DG,ResNum=7)                   0   73.22900000   27.24500000   33.24300000 L
 C(PDBName=C4,ResName=DG,ResNum=7)                   0   74.28000000   28.08600000   33.49100000 L
 C(PDBName=C3P,ResName=DG,ResNum=7)                  0   75.92000000   28.63500000   28.96200000 L
 H(PDBName=H3P,ResName=DG,ResNum=7)                  0   76.68700000   29.09800000   28.33800000 L
 C(PDBName=C2P,ResName=DG,ResNum=7)                  0   75.78700000   29.36200000   30.28300000 L
 H(PDBName=H2P,ResName=DG,ResNum=7)                  0   76.77000000   29.64600000   30.65300000 L
 H(PDBName=H2PP,ResName=DG,ResNum=7)                 0   75.12200000   30.21600000   30.19800000 L
 O(PDBName=O3P,ResName=DG,ResNum=7)                  0   74.65100000   28.66900000   28.34800000 L
 P(PDBName=P,ResName=DG,ResNum=8)                    0   74.51500000   28.94000000   26.79900000 L
 O(PDBName=OP1,ResName=DG,ResNum=8)                  0   75.10700000   27.79200000   26.07500000 L
 O(PDBName=OP2,ResName=DG,ResNum=8)                  0   75.03200000   30.30700000   26.53900000 L
 O(PDBName=O5P,ResName=DG,ResNum=8)                  0   72.94800000   28.93400000   26.55700000 L
 C(PDBName=C5P,ResName=DG,ResNum=8)                  0   72.17400000   27.74600000   26.70100000 L
 H(PDBName=H5P,ResName=DG,ResNum=8)                  0   72.75400000   26.97300000   27.20800000 L
 H(PDBName=H5PP,ResName=DG,ResNum=8)                 0   71.90500000   27.37800000   25.71100000 L
 C(PDBName=C4P,ResName=DG,ResNum=8)                  0   70.89600000   27.97600000   27.52100000 L
 H(PDBName=H4P,ResName=DG,ResNum=8)                  0   70.26000000   27.09300000   27.43100000 L
 O(PDBName=O4P,ResName=DG,ResNum=8)                  0   71.23200000   28.19400000   28.89300000 L
 C(PDBName=C1P,ResName=DG,ResNum=8)                  0   70.67300000   29.43500000   29.28900000 L
 H(PDBName=H1P,ResName=DG,ResNum=8)                  0   69.65200000   29.26600000   29.64200000 L
 N(PDBName=N9,ResName=DG,ResNum=8)                   0   71.45300000   30.07600000   30.37000000 L
 C(PDBName=C8,ResName=DG,ResNum=8)                   0   72.50100000   30.95900000   30.27800000 L
 H(PDBName=H8,ResName=DG,ResNum=8)                   0   72.94500000   31.22700000   29.32700000 L
 N(PDBName=N7,ResName=DG,ResNum=8)                   0   72.90500000   31.44200000   31.42700000 L
 C(PDBName=C5,ResName=DG,ResNum=8)                   0   72.06400000   30.80500000   32.35500000 L
 C(PDBName=C6,ResName=DG,ResNum=8)                   0   71.97900000   30.90000000   33.78900000 L
 O(PDBName=O6,ResName=DG,ResNum=8)                   0   72.66600000   31.56600000   34.56300000 L
 N(PDBName=N1,ResName=DG,ResNum=8)                   0   70.97400000   30.12800000   34.33500000 L
 H(PDBName=H1,ResName=DG,ResNum=8)                   0   70.80500000   30.20500000   35.32700000 L
 C(PDBName=C2,ResName=DG,ResNum=8)                   0   70.15700000   29.33200000   33.60800000 L
 N(PDBName=N2,ResName=DG,ResNum=8)                   0   69.23900000   28.67000000   34.25100000 L
 H(PDBName=H21,ResName=DG,ResNum=8)                  0   69.12600000   28.79000000   35.25400000 L
 H(PDBName=H22,ResName=DG,ResNum=8)                  0   68.63300000   28.06700000   33.72400000 L
 N(PDBName=N3,ResName=DG,ResNum=8)                   0   70.20700000   29.19200000   32.28700000 L
 C(PDBName=C4,ResName=DG,ResNum=8)                   0   71.18100000   29.96400000   31.71300000 L
 C(PDBName=C3P,ResName=DG,ResNum=8)                  0   70.11100000   29.20700000   27.04800000 L
 H(PDBName=H3P,ResName=DG,ResNum=8)                  0   70.33900000   29.46900000   26.01200000 L
 C(PDBName=C2P,ResName=DG,ResNum=8)                  0   70.61100000   30.26900000   28.01000000 L
 H(PDBName=H2P,ResName=DG,ResNum=8)                  0   71.59800000   30.61900000   27.71200000 L
 H(PDBName=H2PP,ResName=DG,ResNum=8)                 0   69.90800000   31.09500000   28.09200000 L
 O(PDBName=O3P,ResName=DG,ResNum=8)                  0   68.72100000   29.06600000   27.27300000 L
 P(PDBName=P,ResName=DG,ResNum=9)                    0   67.71600000   28.81900000   26.08300000 L
 O(PDBName=OP1,ResName=DG,ResNum=9)                  0   68.07700000   27.57300000   25.38200000 L
 O(PDBName=OP2,ResName=DG,ResNum=9)                  0   67.59800000   30.08400000   25.32200000 L
 O(PDBName=O5P,ResName=DG,ResNum=9)                  0   66.34000000   28.59700000   26.85800000 L
 C(PDBName=C5P,ResName=DG,ResNum=9)                  0   66.05000000   27.36200000   27.50700000 L
 H(PDBName=H5P,ResName=DG,ResNum=9)                  0   66.98000000   26.83500000   27.73300000 L
 H(PDBName=H5PP,ResName=DG,ResNum=9)                 0   65.46800000   26.73200000   26.83300000 L
 C(PDBName=C4P,ResName=DG,ResNum=9)                  0   65.28600000   27.52600000   28.83200000 L
 H(PDBName=H4P,ResName=DG,ResNum=9)                  0   64.98800000   26.53300000   29.16400000 L
 O(PDBName=O4P,ResName=DG,ResNum=9)                  0   66.13700000   28.10800000   29.81700000 L
 C(PDBName=C1P,ResName=DG,ResNum=9)                  0   65.54800000   29.30700000   30.29900000 L
 H(PDBName=H1P,ResName=DG,ResNum=9)                  0   64.95400000   29.10000000   31.19300000 L
 N(PDBName=N9,ResName=DG,ResNum=9)                   0   66.61500000   30.28800000   30.60500000 L
 C(PDBName=C8,ResName=DG,ResNum=9)                   0   67.47900000   30.89800000   29.73200000 L
 H(PDBName=H8,ResName=DG,ResNum=9)                   0   67.45000000   30.70500000   28.66600000 L
 N(PDBName=N7,ResName=DG,ResNum=9)                   0   68.34600000   31.69600000   30.29900000 L
 C(PDBName=C5,ResName=DG,ResNum=9)                   0   68.01400000   31.62900000   31.65900000 L
 C(PDBName=C6,ResName=DG,ResNum=9)                   0   68.57600000   32.28500000   32.81200000 L
 O(PDBName=O6,ResName=DG,ResNum=9)                   0   69.54400000   33.04600000   32.88400000 L
 N(PDBName=N1,ResName=DG,ResNum=9)                   0   67.91900000   31.98600000   33.98800000 L
 H(PDBName=H1,ResName=DG,ResNum=9)                   0   68.20100000   32.48700000   34.81700000 L
 C(PDBName=C2,ResName=DG,ResNum=9)                   0   66.88100000   31.11900000   34.07000000 L
 N(PDBName=N2,ResName=DG,ResNum=9)                   0   66.31500000   30.98000000   35.23600000 L
 H(PDBName=H21,ResName=DG,ResNum=9)                  0   66.61700000   31.55500000   36.01700000 L
 H(PDBName=H22,ResName=DG,ResNum=9)                  0   65.51200000   30.38100000   35.29500000 L
 N(PDBName=N3,ResName=DG,ResNum=9)                   0   66.35300000   30.45300000   33.04300000 L
 C(PDBName=C4,ResName=DG,ResNum=9)                   0   66.95700000   30.76300000   31.85300000 L
 C(PDBName=C3P,ResName=DG,ResNum=9)                  0   64.03200000   28.40300000   28.76000000 L
 H(PDBName=H3P,ResName=DG,ResNum=9)                  0   63.63400000   28.43600000   27.74600000 L
 C(PDBName=C2P,ResName=DG,ResNum=9)                  0   64.60200000   29.75100000   29.18900000 L
 H(PDBName=H2P,ResName=DG,ResNum=9)                  0   65.15200000   30.21000000   28.36900000 L
 H(PDBName=H2PP,ResName=DG,ResNum=9)                 0   63.82800000   30.42000000   29.55000000 L
 O(PDBName=O3P,ResName=DG,ResNum=9)                  0   63.05800000   27.88900000   29.66500000 L
 P(PDBName=P,ResName=DC,ResNum=10)                   0   61.62400000   28.56100000   29.87000000 L
 O(PDBName=OP1,ResName=DC,ResNum=10)                 0   60.63400000   27.49100000   30.10400000 L
 O(PDBName=OP2,ResName=DC,ResNum=10)                 0   61.39200000   29.49900000   28.74800000 L
 O(PDBName=O5P,ResName=DC,ResNum=10)                 0   61.77500000   29.39200000   31.23400000 L
 C(PDBName=C5P,ResName=DC,ResNum=10)                 0   61.86100000   28.69500000   32.48100000 L
 H(PDBName=H5P,ResName=DC,ResNum=10)                 0   62.74800000   28.06200000   32.46300000 L
 H(PDBName=H5PP,ResName=DC,ResNum=10)                0   60.99600000   28.03800000   32.58000000 L
 C(PDBName=C4P,ResName=DC,ResNum=10)                 0   61.93000000   29.56100000   33.75400000 L
 H(PDBName=H4P,ResName=DC,ResNum=10)                 0   61.96700000   28.88200000   34.60700000 L
 O(PDBName=O4P,ResName=DC,ResNum=10)                 0   63.10800000   30.36000000   33.73700000 L
 C(PDBName=C1P,ResName=DC,ResNum=10)                 0   62.72900000   31.72500000   33.77600000 L
 H(PDBName=H1P,ResName=DC,ResNum=10)                 0   62.71800000   32.06400000   34.81600000 L
 N(PDBName=N1,ResName=DC,ResNum=10)                  0   63.67000000   32.54100000   32.97400000 L
 C(PDBName=C6,ResName=DC,ResNum=10)                  0   63.75800000   32.39200000   31.61200000 L
 H(PDBName=H6,ResName=DC,ResNum=10)                  0   63.10800000   31.67900000   31.11800000 L